 vasp.6.4.2 20Jul23 (build Sep 20 2024 16:56:05) complex
 executed on              LinuxNV date 2025.02.07  17:41:13
 OpenACC runtime initialized ...    4 GPUs detected

 INCAR:
   PREC = Accurate
   ENCUT = 520
   EDIFF = 1e-06
   ISMEAR = 1
   SIGMA = 0.2
   NSW = 0
   IBRION = -1
   LWAVE = .FALSE.
   LCHARG = .TRUE.
   LREAL = .FALSE.
   ALGO = Normal

 POTCAR:    PAW_PBE Cr_pv 02Aug2007
 POTCAR:    PAW_PBE Ti_pv 07Sep2000
 POTCAR:    PAW_PBE V_pv 07Sep2000
 POTCAR:    PAW_PBE W_sv 04Sep2015
 POTCAR:    PAW_PBE Zr_sv 04Jan2005
 POTCAR:    PAW_PBE Cr_pv 02Aug2007
   VRHFIN =Cr : p6d5s1

   TITEL  = PAW_PBE Cr_pv 02Aug2007
   POMASS =   51.996; ZVAL   =   12.000    mass and valenz
   ENMAX  =  265.681; ENMIN  =  199.261 eV

   TITEL  = PAW_PBE Ti_pv 07Sep2000
   POMASS =   47.880; ZVAL   =   10.000    mass and valenz
   ENMAX  =  222.335; ENMIN  =  166.751 eV

   TITEL  = PAW_PBE V_pv 07Sep2000
   POMASS =   50.941; ZVAL   =   11.000    mass and valenz
   ENMAX  =  263.673; ENMIN  =  197.755 eV

   TITEL  = PAW_PBE W_sv 04Sep2015
   POMASS =  183.850; ZVAL   =   14.000    mass and valenz
   ENMAX  =  223.057; ENMIN  =  167.293 eV

   TITEL  = PAW_PBE Zr_sv 04Jan2005
   POMASS =   91.224; ZVAL   =   12.000    mass and valenz
   ENMAX  =  229.898; ENMIN  =  172.424 eV

  PAW_PBE Cr_pv 02Aug2007               :
  PAW_PBE Ti_pv 07Sep2000               :
  PAW_PBE V_pv 07Sep2000                :
  PAW_PBE W_sv 04Sep2015                :
  PAW_PBE Zr_sv 04Jan2005               :

 POSCAR: Cr Ti V  W  Zr
  positions in direct lattice
  velocities in cartesian coordinates
 exchange correlation table for  LEXCH =        8
   RHO(1)=    0.500       N(1)  =     2000
   RHO(2)=  100.500       N(2)  =     4000

 ion  position               nearest neighbor table
   1  0.250  0.749  0.002-  65 2.50  36 2.51  22 2.53  53 2.54  28 2.55  58 2.56  59 2.58  30 2.58
                            60 3.00  90 3.01  29 3.01  52 3.02  64 3.05  37 3.05
   2  0.749  0.250  0.253-  67 2.51  77 2.54  69 2.56  98 2.56 105 2.56 100 2.57  75 2.61 125 2.62
                           106 3.00  99 3.03  76 3.03 112 3.04
   3  0.251  0.499  0.750-  26 2.65  51 2.65  20 2.65  57 2.65  49 2.65  18 2.66  58 2.66  28 2.67
                            50 2.95  64 2.97  88 3.01  27 3.01  52 3.02  56 3.03
   4  0.750  1.000  0.748- 122 2.63  95 2.64  71 2.65 102 2.65 103 2.75  73 2.75 124 2.76  97 2.76
                            72 2.97  11 2.98 101 2.99 123 3.02 128 3.02 108 3.04
   5  0.004  1.000  0.002-  12 2.56   6 2.58  36 2.59  30 2.60 118 2.66 124 2.68 103 2.69  98 2.71
                           128 3.07
   6  0.126  0.124  0.127-  37 2.57   5 2.58  39 2.59  46 2.59  15 2.60   7 2.60  44 2.62  13 2.63

   7  1.000  1.000  0.250- 118 2.55  98 2.56  32 2.59   8 2.59   6 2.60 120 2.60 100 2.63  30 2.65

[...]

  11  0.997  0.000  0.749- 124 2.58 103 2.59 122 2.60 102 2.62  10 2.68  34 2.68  12 2.70  36 2.76
                             4 2.98 127 3.05
  12  0.122  0.131  0.882-  13 2.51   5 2.56  44 2.57  19 2.61  37 2.65  50 2.67  11 2.70 127 2.73
                           103 2.86
  13  0.001  0.251  0.001-  12 2.51 103 2.52  20 2.56  14 2.61   6 2.63 125 2.63  98 2.63 109 2.66

  14  0.127  0.376  0.125-  52 2.57  44 2.58  54 2.59  46 2.60  13 2.61  21 2.61  23 2.62  15 2.63
                           125 3.05
  15  0.003  0.249  0.252-  98 2.53   8 2.57  16 2.58   6 2.60 100 2.62 105 2.63  14 2.63 125 2.64

[...]

  26  0.125  0.627  0.623-  64 2.58  62 2.59  35 2.59  33 2.60  25 2.61  56 2.62  27 2.64   3 2.65
                           126 3.02
  27  0.001  0.499  0.751- 109 2.57  20 2.60 116 2.61  18 2.61 126 2.63 107 2.64  26 2.64  28 2.67
                             3 3.01
  28  0.126  0.628  0.880-   1 2.55  29 2.57  21 2.57  64 2.59  52 2.60  35 2.62   3 2.67  27 2.67
                            36 2.89
  29  0.000  0.749  0.002- 124 2.50  36 2.52  28 2.57 118 2.57  22 2.57 111 2.58  30 2.62 116 2.62
                             1 3.01
  30  0.128  0.874  0.125-  37 2.57   1 2.58  60 2.58  39 2.60   5 2.60  31 2.61  29 2.62   7 2.65
                            36 2.91
  31  0.001  0.750  0.250- 118 2.49  32 2.59  24 2.59 111 2.60 113 2.61  30 2.61  22 2.63 120 2.63

[...]

  58  0.374  0.627  0.880-   1 2.56  90 2.56  52 2.59  82 2.59  64 2.60  96 2.62   3 2.66  88 2.67
                            65 2.89  53 2.92
  59  0.372  0.874  0.125-  37 2.57   1 2.58  60 2.58  39 2.59  66 2.60  92 2.62  90 2.62  68 2.65
                            65 2.91
  60  0.250  0.750  0.251-  59 2.58  24 2.58  30 2.58  55 2.59  22 2.59  61 2.59  53 2.60  32 2.60
                             1 3.00
  61  0.375  0.876  0.373-  41 2.57  39 2.58  60 2.59  68 2.59  92 2.59  70 2.61  62 2.61  94 2.62

[...]

  64  0.250  0.745  0.749-  26 2.58  28 2.59  57 2.60  58 2.60  65 2.64  36 2.65  63 2.69  34 2.69
                             3 2.97   1 3.05 127 3.08
  65  0.374  0.867  0.884-   1 2.50  90 2.53  66 2.60  96 2.63  64 2.64  37 2.65 127 2.74  72 2.76
                            58 2.89  97 2.89  59 2.91
  66  0.495  0.000  0.002-  43 2.56  38 2.58  59 2.60  65 2.60  91 2.67  97 2.69  73 2.70  67 2.74
                           128 3.06
  67  0.623  0.133  0.135-  76 2.50   2 2.51  68 2.59  74 2.61  99 2.65 104 2.66  66 2.74 128 2.76
                            69 2.90  75 2.92
  68  0.500  0.000  0.251-  91 2.56  40 2.58  67 2.59  61 2.59  38 2.60  93 2.60  69 2.63  59 2.65

[...]

  81  0.626  0.378  0.875- 115 2.57 104 2.59  88 2.59 110 2.59  82 2.60 108 2.62  80 2.62  74 2.64
                            73 2.91
  82  0.499  0.500  0.001-  51 2.56  45 2.59  83 2.59  58 2.59  89 2.60  81 2.60  53 2.62  75 2.62

[...]

  87  0.624  0.623  0.625-  88 2.59  86 2.60  96 2.60 115 2.61  94 2.62 123 2.62 114 2.62 121 2.63
                           126 3.02
  88  0.500  0.500  0.751-  89 2.58  81 2.59  87 2.59  51 2.61  57 2.62  49 2.62  79 2.62  58 2.67
                             3 3.01
  89  0.625  0.622  0.875-  88 2.58 110 2.58 115 2.59  82 2.60 117 2.60 123 2.61  96 2.62  90 2.63
                            97 2.90
  90  0.500  0.748  0.002-  97 2.50  65 2.53  58 2.56  53 2.57  91 2.57  83 2.59  59 2.62  89 2.63
                             1 3.01
  91  0.618  0.869  0.132-  92 2.48  68 2.56  90 2.57 119 2.58  66 2.67  99 2.67 117 2.70 128 2.74

[...]

  97  0.613  0.863  0.871-  96 2.45  90 2.50  72 2.58 123 2.58 117 2.68  66 2.69   4 2.76 128 2.78
                            65 2.89  89 2.90
  98  0.877  0.129  0.134-  15 2.53   2 2.56   7 2.56  99 2.62  13 2.63 104 2.70   5 2.71 128 2.74
                           100 2.90 125 2.97
  99  0.750  0.999  0.254- 120 2.56  93 2.56 100 2.58  69 2.59  98 2.62  67 2.65 118 2.67  91 2.67
                             2 3.03 128 3.06
 100  0.873  0.126  0.375-   2 2.57  99 2.58 101 2.60  17 2.60 106 2.60   9 2.62  15 2.62   7 2.63
                            98 2.90
 101  0.750  0.000  0.500- 122 2.59  93 2.59 120 2.59 100 2.60  69 2.60 102 2.60  71 2.60  95 2.61
                             4 2.99
 102  0.876  0.127  0.621- 106 2.57  17 2.57   9 2.60 101 2.60  11 2.62  19 2.62 108 2.63   4 2.65

 103  0.885  0.136  0.871-  19 2.45  13 2.52  11 2.59 108 2.59 104 2.66   5 2.69   4 2.75 128 2.79
                            12 2.86 109 2.92
 104  0.749  0.254  0.999-  81 2.59  75 2.61 125 2.61 109 2.61  73 2.64 103 2.66  67 2.66  98 2.70
                           128 3.07
 105  0.872  0.372  0.376-   2 2.56 106 2.58 114 2.59  17 2.59 112 2.63  15 2.63  25 2.63  23 2.67
                           125 3.00
 106  0.750  0.250  0.502-  71 2.56 102 2.57 107 2.57 105 2.58  79 2.59  69 2.59  77 2.60 100 2.60
                             2 3.00
 107  0.873  0.373  0.625- 106 2.57 108 2.57  19 2.59 115 2.61  17 2.62 114 2.62  27 2.64  25 2.64
                           126 3.02
 108  0.750  0.251  0.749- 107 2.57  73 2.59  79 2.59 103 2.59 109 2.61  81 2.62  71 2.63 102 2.63
                             4 3.04
 109  0.874  0.378  0.873- 115 2.57  27 2.57 108 2.61 104 2.61  19 2.62 110 2.62  21 2.62  13 2.66
                           103 2.92 125 3.06
 110  0.749  0.502  0.001-  89 2.58  83 2.58 116 2.58  81 2.59 111 2.61 109 2.62  75 2.63 125 2.63

 111  0.876  0.626  0.125- 117 2.57  29 2.58  31 2.60  23 2.61 119 2.61 110 2.61  21 2.62 112 2.62
                           125 3.02
 112  0.748  0.502  0.252- 113 2.57  85 2.57  83 2.59  77 2.60  75 2.61 125 2.62 111 2.62 105 2.63
                             2 3.04
 113  0.874  0.624  0.373- 112 2.57 119 2.59  23 2.59  31 2.61 114 2.62  33 2.62 121 2.62  25 2.63
                           126 3.03
 114  0.749  0.498  0.498-  79 2.58  77 2.58 105 2.59  85 2.59 113 2.62 107 2.62  87 2.62 126 2.63

[...]

 116  0.875  0.623  0.876-  21 2.58 110 2.58 117 2.59  27 2.61 115 2.62  29 2.62 123 2.64  35 2.64
                           124 2.90 126 3.04
 117  0.750  0.745  0.001- 111 2.57 116 2.59  83 2.59  89 2.60  97 2.68 124 2.68 118 2.70  91 2.70
                           128 3.06
 118  0.882  0.870  0.132-  31 2.49   7 2.55  29 2.57 119 2.59   5 2.66  99 2.67 117 2.70 128 2.74

[...]

 121  0.749  0.750  0.498-  95 2.58  93 2.59  85 2.60 120 2.61 122 2.61 113 2.62 126 2.63  87 2.63

 122  0.876  0.876  0.621-   9 2.58 101 2.59  33 2.59  11 2.60 121 2.61   4 2.63  35 2.65 123 2.66
                           126 3.04
 123  0.749  0.749  0.750-  97 2.58 124 2.60  89 2.61 126 2.62  87 2.62  95 2.63 116 2.64 122 2.66
                             4 3.02
 124  0.886  0.863  0.871-  35 2.44  29 2.50  11 2.58 123 2.60 117 2.68   5 2.68   4 2.76 128 2.79
                            36 2.89 116 2.90
 125  0.874  0.375  0.127- 104 2.61   2 2.62  23 2.62 112 2.62 110 2.63  13 2.63  15 2.64  21 2.66
                            98 2.97 105 3.00  75 3.00 111 3.02  14 3.05 109 3.06
 126  0.874  0.624  0.624- 115 2.61 123 2.62 114 2.63 121 2.63  27 2.63  25 2.63  35 2.64  33 2.65
                            87 3.02  26 3.02 107 3.02 113 3.03 122 3.04 116 3.04
 127  0.250  0.001  0.748-  42 2.72  10 2.73  63 2.73  34 2.73  12 2.73  43 2.73  36 2.74  65 2.74
                            72 3.04  11 3.05  41 3.05  50 3.06  64 3.08  37 3.10
 128  0.749  0.999  0.999-  91 2.74  98 2.74 118 2.74  67 2.76  97 2.78 124 2.79 103 2.79  73 2.79
                             4 3.02 117 3.06  66 3.06  99 3.06 104 3.07   5 3.07

  LATTYP: Found a triclinic cell.
 ALAT       =    17.0358975276
 B/A-ratio  =     0.7070015846
 C/A-ratio  =     0.7071772766
 COS(alpha) =     0.0000417821
 COS(beta)  =     0.0004596508
 COS(gamma) =     0.7064723174

  Lattice vectors:

 A1 = ( -12.0398988663, -12.0524945357,  -0.0039149013)
 A2 = ( -12.0444057017,   0.0045050718,  -0.0002512581)
 A3 = (  -0.0002534140,  -0.0036608590, -12.0473990587)

Analysis of symmetry for initial positions (statically):
 Subroutine PRICEL returns:
 Original cell was already a primitive cell.

 Routine SETGRP: Setting up the symmetry group for a
 triclinic supercell.

 Subroutine GETGRP returns: Found  1 space group operations
 (whereof  1 operations were pure point group operations)
 out of a pool of  2 trial point group operations.

The static configuration has the point symmetry C_1 .

[...]
     0.000253414  0.003660859 12.047399059    -0.000001741 -0.000025223  0.083005476

  length of vectors
    12.044406547 12.057001006 12.047399618     0.083026115  0.082939403  0.083005480

 FORCES acting on ions
    electron-ion (+dipol)            ewald-force                    non-local-force                 convergence-correction
   -.578E+01 -.260E+02 0.435E+02   0.577E+01 0.258E+02 -.432E+02   0.168E-01 0.126E+00 -.270E+00   -.297E-02 0.478E-03 -.695E-02
   0.183E+02 0.480E+02 0.164E+02   -.184E+02 -.480E+02 -.161E+02   0.106E+00 0.503E-01 -.309E+00   0.865E-03 -.114E-02 0.278E-02
   -.415E+01 0.121E+02 0.202E+02   0.411E+01 -.121E+02 -.201E+02   0.395E-01 -.294E-01 -.610E-01   -.259E-02 0.702E-02 -.342E-02
   0.638E+01 0.260E+01 -.101E+03   -.639E+01 -.260E+01 0.101E+03   0.946E-02 0.478E-02 0.270E+00   0.105E-02 -.155E-02 -.287E-02
   0.978E+02 -.767E+01 0.641E+02   -.981E+02 0.766E+01 -.638E+02   0.352E+00 0.141E-01 -.232E+00   -.203E-02 -.301E-02 -.236E-02
   0.924E+01 0.544E+01 0.336E+02   -.932E+01 -.515E+01 -.336E+02   0.821E-01 -.292E+00 -.265E-01   -.359E-02 -.394E-02 -.251E-03
   0.128E+02 0.689E+01 0.228E+02   -.125E+02 -.687E+01 -.226E+02   -.267E+00 -.151E-01 -.177E+00   -.101E-02 -.384E-02 0.290E-02
   -.162E+02 -.210E+00 -.329E+02   0.163E+02 0.412E+00 0.330E+02   -.531E-01 -.196E+00 -.971E-01   -.111E-02 -.466E-02 0.623E-02
   -.176E+02 -.741E+00 -.496E+02   0.174E+02 0.802E+00 0.493E+02   0.180E+00 -.573E-01 0.333E+00   0.775E-03 -.349E-02 0.394E-02
   -.762E+02 0.619E+02 -.963E+02   0.758E+02 -.614E+02 0.960E+02   0.390E+00 -.529E+00 0.382E+00   -.807E-03 -.566E-02 0.567E-03
   -.256E+02 -.215E+01 -.364E+02   0.259E+02 0.214E+01 0.362E+02   -.251E+00 0.139E-01 0.178E+00   0.133E-02 -.251E-02 -.442E-02
   -.449E+02 0.719E+02 0.934E+02   0.443E+02 -.712E+02 -.931E+02   0.595E+00 -.703E+00 -.346E+00   -.264E-02 -.474E-02 -.588E-02
   0.286E+01 0.548E+02 0.316E+02   -.276E+01 -.546E+02 -.312E+02   -.105E+00 -.242E+00 -.433E+00   -.147E-02 -.211E-02 -.321E-02
   -.148E+02 0.111E+02 0.406E+01   0.148E+02 -.112E+02 -.390E+01   0.789E-01 0.413E-01 -.154E+00   -.206E-02 0.163E-02 0.105E-03
   -.455E+02 0.175E+02 -.125E+02   0.460E+02 -.175E+02 0.127E+02   -.455E+00 -.731E-01 -.221E+00   0.106E-03 -.193E-02 0.337E-02
   -.219E+02 0.104E+01 -.273E+02   0.220E+02 -.964E+00 0.273E+02   -.105E+00 -.793E-01 -.417E-01   -.180E-02 0.173E-02 0.517E-02
   -.228E+02 0.263E+01 -.203E+02   0.225E+02 -.229E+01 0.198E+02   0.249E+00 -.338E+00 0.503E+00   -.566E-03 -.171E-02 0.422E-02
   -.650E+02 -.149E+02 -.437E+02   0.649E+02 0.147E+02 0.434E+02   0.442E-01 0.137E+00 0.365E+00   -.178E-02 0.179E-02 0.329E-03
   -.410E+02 0.399E+02 0.364E+01   0.413E+02 -.394E+02 -.394E+01   -.249E+00 -.483E+00 0.306E+00   -.147E-02 -.182E-02 -.411E-02
   -.487E+02 0.255E+01 0.668E+02   0.486E+02 -.287E+01 -.666E+02   0.101E+00 0.318E+00 -.173E+00   -.237E-02 0.175E-02 -.549E-02
   -.169E+02 -.709E+01 0.303E+02   0.169E+02 0.716E+01 -.302E+02   0.168E-01 -.776E-01 -.124E+00   0.769E-03 0.365E-02 -.265E-02
   0.301E+02 0.296E+02 -.280E+02   -.302E+02 -.298E+02 0.282E+02   0.558E-01 0.215E+00 -.187E+00   -.111E-02 0.426E-02 -.205E-02
   -.332E+02 -.209E+02 -.216E+02   0.335E+02 0.210E+02 0.217E+02   -.290E+00 -.194E+00 -.145E+00   -.638E-03 0.446E-02 0.341E-02
   -.773E+01 0.336E+01 -.307E+02   0.768E+01 -.346E+01 0.309E+02   0.435E-01 0.955E-01 -.222E+00   -.172E-02 0.340E-02 0.637E-02
   -.388E+02 0.113E+02 -.592E+01   0.388E+02 -.115E+02 0.556E+01   0.123E-02 0.136E+00 0.360E+00   -.516E-04 0.334E-02 0.307E-02
   -.584E+02 0.275E+02 -.371E+02   0.582E+02 -.274E+02 0.366E+02   0.227E+00 -.928E-01 0.478E+00   0.188E-02 0.499E-02 0.122E-02
   -.758E+02 0.114E+02 -.365E+01   0.763E+02 -.114E+02 0.381E+01   -.493E+00 0.415E-01 -.161E+00   0.145E-02 0.286E-02 -.377E-02
   -.739E+01 0.409E+02 0.939E+02   0.732E+01 -.407E+02 -.938E+02   0.724E-01 -.208E+00 -.140E+00   0.223E-02 0.590E-02 -.558E-02
   0.553E+02 -.388E+02 0.156E+02   -.555E+02 0.384E+02 -.151E+02   0.151E+00 0.464E+00 -.437E+00   0.226E-02 0.134E-02 -.189E-02
   0.419E+02 -.430E+02 0.205E+01   -.421E+02 0.428E+02 -.201E+01   0.203E+00 0.178E+00 -.440E-01   -.227E-02 -.190E-02 -.209E-02
   0.600E+01 -.354E+01 -.126E+02   -.577E+01 0.322E+01 0.129E+02   -.228E+00 0.319E+00 -.277E+00   -.148E-02 0.121E-02 0.334E-02
   -.294E+01 -.427E+01 -.327E+02   0.286E+01 0.411E+01 0.329E+02   0.772E-01 0.161E+00 -.184E+00   -.110E-02 -.459E-03 0.730E-02
   -.170E+02 -.138E+02 0.325E+01   0.169E+02 0.136E+02 -.382E+01   0.973E-01 0.176E+00 0.562E+00   0.126E-02 0.184E-02 0.283E-02
   -.671E+02 -.729E+02 -.865E+02   0.667E+02 0.724E+02 0.860E+02   0.392E+00 0.510E+00 0.533E+00   0.265E-02 -.862E-03 0.104E-02
   -.359E+02 -.494E+02 -.422E+01   0.364E+02 0.490E+02 0.405E+01   -.449E+00 0.388E+00 0.171E+00   0.465E-02 0.151E-02 -.424E-02
   -.370E+00 -.116E+03 0.118E+03   -.156E+00 0.116E+03 -.117E+03   0.524E+00 0.599E+00 -.407E+00   0.158E-02 -.277E-02 -.574E-02
   -.380E+01 -.330E+02 0.111E+03   0.379E+01 0.332E+02 -.111E+03   0.182E-01 -.254E+00 0.318E+00   -.252E-02 -.559E-02 -.414E-02
   -.192E+02 0.590E+01 0.340E+02   0.193E+02 -.558E+01 -.340E+02   -.710E-01 -.315E+00 -.325E-01   0.133E-02 -.328E-02 -.245E-03
   -.376E+01 -.969E+01 -.564E+01   0.375E+01 0.968E+01 0.555E+01   0.156E-01 0.163E-01 0.847E-01   -.266E-02 -.354E-02 0.530E-02
   0.669E+01 -.947E+00 -.338E+02   -.668E+01 0.117E+01 0.339E+02   -.123E-01 -.220E+00 -.109E+00   -.891E-03 -.502E-02 0.607E-02
   -.404E+01 -.524E+01 -.118E+03   0.403E+01 0.524E+01 0.119E+03   0.768E-02 -.650E-04 -.348E+00   -.141E-02 -.557E-02 0.539E-02
   0.690E+02 0.616E+02 -.958E+02   -.686E+02 -.611E+02 0.954E+02   -.408E+00 -.534E+00 0.424E+00   -.206E-02 -.823E-02 0.523E-03
   0.356E+02 0.709E+02 0.934E+02   -.350E+02 -.701E+02 -.931E+02   -.634E+00 -.779E+00 -.355E+00   0.621E-03 -.559E-02 -.570E-02
   -.403E+01 0.266E+02 0.506E+02   0.401E+01 -.265E+02 -.503E+02   0.284E-01 -.664E-01 -.254E+00   -.259E-02 -.927E-03 -.244E-02
   -.941E-01 0.101E+02 0.526E+01   0.700E-01 -.101E+02 -.513E+01   0.231E-01 0.217E-01 -.134E+00   0.129E-02 0.167E-02 0.851E-03
   -.317E+01 0.235E+01 -.123E+02   0.315E+01 -.236E+01 0.124E+02   0.253E-01 0.628E-02 -.937E-01   -.224E-02 -.101E-02 0.350E-02
   0.132E+02 -.465E+00 -.290E+02   -.133E+02 0.542E+00 0.290E+02   0.674E-01 -.797E-01 -.629E-01   0.201E-03 0.206E-02 0.378E-02
   -.453E+01 0.118E+02 -.525E+02   0.453E+01 -.117E+02 0.523E+02   -.247E-02 -.122E+00 0.215E+00   -.338E-02 -.306E-02 0.317E-02
   0.582E+02 -.157E+02 -.437E+02   -.581E+02 0.156E+02 0.433E+02   -.309E-01 0.140E+00 0.391E+00   -.203E-02 0.271E-02 -.356E-03
   -.440E+01 0.586E+02 0.149E+02   0.440E+01 -.587E+02 -.150E+02   0.467E-02 0.641E-01 0.648E-01   -.359E-02 -.255E-02 -.408E-02
   0.387E+02 0.122E+01 0.677E+02   -.386E+02 -.154E+01 -.675E+02   -.114E+00 0.317E+00 -.164E+00   -.285E-03 0.196E-02 -.417E-02
   -.460E+01 0.322E+02 0.565E+02   0.455E+01 -.324E+02 -.567E+02   0.538E-01 0.205E+00 0.207E+00   -.249E-02 0.628E-02 -.312E-02
   -.372E+02 0.280E+02 -.267E+02   0.372E+02 -.282E+02 0.269E+02   -.295E-01 0.176E+00 -.182E+00   -.146E-02 0.307E-02 -.210E-02
   -.381E+01 0.924E+01 -.173E+02   0.376E+01 -.923E+01 0.173E+02   0.507E-01 -.166E-01 0.107E-01   -.208E-02 0.329E-02 0.285E-02
   -.101E+01 0.371E+01 -.323E+02   0.106E+01 -.382E+01 0.325E+02   -.487E-01 0.112E+00 -.222E+00   -.157E-04 0.316E-02 0.710E-02
   -.597E+01 0.576E+01 -.639E+02   0.595E+01 -.578E+01 0.642E+02   0.236E-01 0.118E-01 -.276E+00   -.267E-02 0.571E-02 0.408E-02
   0.477E+02 0.261E+02 -.349E+02   -.476E+02 -.260E+02 0.344E+02   -.268E-01 -.885E-01 0.489E+00   -.240E-02 0.735E-02 0.139E-02
   -.155E+01 0.422E+02 0.935E+02   0.164E+01 -.420E+02 -.934E+02   -.874E-01 -.189E+00 -.136E+00   -.363E-02 0.668E-02 -.653E-02
   -.513E+02 -.420E+02 0.244E+01   0.515E+02 0.418E+02 -.240E+01   -.235E+00 0.196E+00 -.387E-01   -.140E-02 -.145E-02 -.216E-02
   -.450E+01 -.204E+01 -.385E+02   0.450E+01 0.205E+01 0.388E+02   0.536E-02 -.523E-02 -.279E+00   -.301E-02 0.127E-02 0.314E-02
[...]
   0.196E+02 0.801E+01 -.166E+02   -.197E+02 -.811E+01 0.168E+02   0.144E+00 0.958E-01 -.202E+00   0.137E-02 0.147E-02 -.368E-02
   0.425E+01 -.381E+02 0.549E+01   -.415E+01 0.384E+02 -.553E+01   -.104E+00 -.237E+00 0.452E-01   0.165E-02 0.259E-02 -.339E-02
   0.950E+01 -.132E+03 0.254E+02   -.958E+01 0.132E+03 -.253E+02   0.697E-01 -.187E+00 -.490E-01   0.179E-02 0.224E-02 -.551E-03
   0.836E+02 -.701E+02 0.921E+02   -.834E+02 0.696E+02 -.918E+02   -.226E+00 0.521E+00 -.267E+00   -.320E-03 0.231E-03 -.187E-03
   0.865E+01 -.391E+02 0.266E+02   -.870E+01 0.389E+02 -.264E+02   0.427E-01 0.123E+00 -.180E+00   0.270E-02 0.544E-03 0.389E-02
   0.632E+01 0.132E+01 -.154E+01   -.627E+01 -.163E+01 0.144E+01   -.495E-01 0.309E+00 0.962E-01   0.185E-03 -.147E-02 0.418E-02
   0.189E+02 -.371E+02 -.907E+01   -.191E+02 0.372E+02 0.882E+01   0.117E+00 -.109E+00 0.244E+00   0.479E-03 0.192E-02 0.165E-02
   0.315E+02 -.558E+02 -.788E+02   -.312E+02 0.554E+02 0.787E+02   -.322E+00 0.461E+00 0.116E+00   0.219E-02 0.135E-03 -.178E-02
   0.202E+02 -.109E+03 -.414E+02   -.204E+02 0.109E+03 0.414E+02   0.181E+00 -.191E+00 0.691E-01   -.565E-03 0.169E-02 -.489E-02
   0.109E+03 -.140E+03 -.173E+02   -.109E+03 0.140E+03 0.173E+02   -.140E+00 0.220E+00 -.905E-02   0.161E-02 0.178E-02 -.231E-02
   -.276E+02 0.321E+01 0.496E+02   0.276E+02 -.322E+01 -.495E+02   -.101E-01 0.105E-01 -.101E+00   -.804E-03 0.850E-03 -.366E-03
   -.151E+02 -.288E+02 -.164E+02   0.152E+02 0.288E+02 0.163E+02   -.776E-01 0.696E-02 0.932E-01   0.209E-02 0.344E-02 -.226E-02
   -.426E+01 -.140E+02 0.581E+01   0.426E+01 0.140E+02 -.566E+01   0.412E-02 0.730E-01 -.143E+00   -.106E-02 -.736E-02 -.648E-02
   0.832E+01 0.981E+01 0.918E+02   -.829E+01 -.974E+01 -.916E+02   -.332E-01 -.703E-01 -.196E+00   0.237E-02 -.131E-02 -.198E-02
   -.581E-01 0.205E-03 -.101E+00   -.497E-11 0.225E-11 -.141E-11   0.653E-01 0.152E-02 0.944E-01   0.911E-05 0.199E-02 0.381E-02

 POSITION                                       TOTAL-FORCE (eV/Angst)
      3.00782      9.02821      0.02323        -0.000065      0.001193     -0.001933
      9.02030      3.01420      3.04875        -0.000080      0.000039      0.001822
      3.01704      6.02127      9.03171         0.000468     -0.000331     -0.000489
      9.02365     12.05060      9.02026        -0.000054     -0.000797      0.001135
      0.04784     12.05446      0.02602        -0.000561      0.000767     -0.000294
      1.51590      1.49173      1.53194        -0.000345      0.001333     -0.000449
     12.03519     12.05316      3.02120        -0.000800      0.000762     -0.000564
      1.50287      1.49312      4.49925        -0.000640      0.000752     -0.000616
     12.03610      0.00146      6.00146        -0.000530     -0.000173     -0.000707
      1.42802      1.57660      7.43149        -0.000397      0.000253     -0.000987
     12.01059     -0.00130      9.02741        -0.000034     -0.000222     -0.000301
      1.46488      1.57634     10.62283         0.000244      0.000458     -0.000428
      0.01499      3.02278      0.01581        -0.000005      0.000763      0.000258
      1.53139      4.53919      1.50367         0.000202      0.001146     -0.000659
      0.03510      3.00526      3.03404        -0.000326      0.000661      0.000399
      1.50615      4.52452      4.50619         0.000026      0.000327     -0.000480
     12.03455      3.00841      6.00784        -0.000379     -0.000165      0.000243
      1.46355      4.49934      7.50324         0.000090     -0.000060      0.000087
     12.04115      3.03173      9.02865        -0.000300     -0.000091      0.000454
      1.47575      4.51895     10.58102         0.000217      0.000685     -0.000406
      0.02283      6.04946     12.03976        -0.000213      0.000627     -0.000317
      1.54575      7.56931      1.47927        -0.000134      0.000826     -0.001665
      0.00865      6.04512      3.01887         0.000342      0.000570     -0.000350
      1.50964      7.53932      4.49472         0.000100      0.000300     -0.001594
      0.01419      6.01363      6.00632         0.000168     -0.000590     -0.000162
      1.49943      7.55750      7.50190         0.000179     -0.000670     -0.000885
      0.00584      6.01979      9.04988        -0.000258     -0.000390      0.000030
      1.52020      7.56985     10.60475        -0.000168      0.000205     -0.001518
     -0.00031      9.02823      0.02725        -0.000445      0.000627     -0.001013
      1.54135     10.53257      1.51222        -0.000673      0.000832     -0.001421
      0.00541      9.04472      3.01590        -0.000335      0.000477     -0.001143
      1.50086     10.55960      4.49207        -0.000718     -0.000331     -0.001525
     -0.00166      9.05540      5.99065         0.000053     -0.000249     -0.001165
      1.43416     10.48931      7.43863        -0.000241     -0.000665     -0.001780
      0.02197      9.03823      9.03659        -0.000123     -0.000173     -0.000519
      1.51386     10.45932     10.64927        -0.000336      0.000625     -0.001506
      3.01342      0.01726      0.06064        -0.000415      0.000804     -0.000897
      4.50837      1.49415      1.53338        -0.000262      0.001068     -0.000188
      3.00811     12.05297      3.02172        -0.000349      0.000651     -0.001148
      4.51656      1.49244      4.49568         0.000041      0.000503      0.000030
      3.00685     12.05527      5.95489        -0.000305     -0.000177     -0.001533
      4.59511      1.57516      7.43197         0.000086      0.000084     -0.000340
      4.55865      1.57981     10.62894        -0.000666      0.000102     -0.000020
      3.01382      3.02839      0.02462         0.000015      0.000734     -0.000133
      4.51004      4.53381      1.50707         0.000242      0.000792     -0.000299
      3.01409      3.01702      3.00210        -0.000068      0.000640     -0.000257
      4.51940      4.52571      4.50525         0.000366     -0.000024      0.000105
      3.01186      3.02812      6.00245         0.000073     -0.000002     -0.000415
      4.56603      4.50269      7.50289         0.000574     -0.000390      0.000631
      3.01320      3.07524      9.04470         0.000106      0.000097     -0.000178
      4.55201      4.52005     10.58609         0.000474      0.000484      0.000067
      3.01525      6.01255      0.00460         0.000373      0.000910     -0.001510
      4.48061      7.56048      1.48184         0.000521      0.000466     -0.001146
      3.01465      6.03585      3.01305         0.000304      0.000838     -0.001483
      4.51710      7.53422      4.49339         0.000236     -0.000082     -0.001136
      3.01378      6.02823      6.00532         0.000396     -0.000425     -0.000496
      4.55645      7.55285      7.50788         0.000361     -0.000895     -0.000555
      4.50653      7.56409     10.60955         0.000570     -0.000062     -0.001061
      4.47291     10.53260      1.51353        -0.000094      0.000430     -0.001090
      3.01073      9.04136      3.02518        -0.000041      0.000738     -0.002107
[...]
      9.01375      6.00414      5.99888         0.000241     -0.001161      0.001131
      9.01659      6.01598      9.03993         0.000351     -0.000985      0.001208
     10.53741      7.50785     10.56168         0.000064     -0.000039      0.000215
      9.02829      8.98063      0.01376        -0.000006     -0.000002      0.000322
     10.61874     10.48714      1.59003        -0.000641      0.000274     -0.000112
      9.02740      9.03153      3.02173        -0.000058     -0.000130      0.000528
     10.52837     10.56836      4.52695        -0.000465     -0.000462     -0.000072
      9.01486      9.04631      6.00670        -0.000121     -0.000754      0.000337
     10.55306     10.55590      7.48583        -0.000512     -0.000497      0.000379
      9.01866      9.03560      9.04402        -0.000020     -0.000564      0.000526
     10.67142     10.40857     10.50000        -0.000364      0.000296      0.000045
     10.52493      4.52376      1.53307         0.000314      0.000745      0.001267
     10.52508      7.52019      7.52484         0.000364     -0.000369      0.000024
      3.01461      0.01253      9.00572        -0.000551      0.000161     -0.001910
      9.02004     12.04276     12.04331        -0.000332      0.000429      0.000945
    total drift:                                0.007165      0.003713     -0.003205

  FREE ENERGIE OF THE ION-ELECTRON SYSTEM (eV)
  free  energy   TOTEN  =     -1150.46103463 eV

  energy  without entropy=    -1150.36543969  energy(sigma->0) =    -1150.42916965