 vasp.6.4.2 20Jul23 (build Sep 20 2024 16:56:05) complex
 executed on              LinuxNV date 2024.12.10  13:18:58
 OpenACC runtime initialized ...    4 GPUs detected

 INCAR:
   ENCUT = 520.000000
   POTIM = 0.200000
   SIGMA = 0.200000
   EDIFF = 1.00e-06
   EDIFFG = -1.00e-02
   ALGO = Normal
   GGA = PE
   PREC = Accurate
   IBRION = 2
   ISIF = 2
   ISMEAR = 1
   LORBIT = 11
   NELM = 100
   NSW = -1
   LCHARG = .TRUE.
   LWAVE = .FALSE.
   LREAL = .FALSE.

 POTCAR:    PAW_PBE V_pv 07Sep2000
 POTCAR:    PAW_PBE Cr_pv 02Aug2007
 POTCAR:    PAW_PBE Ti_pv 07Sep2000
 POTCAR:    PAW_PBE V_pv 07Sep2000
   VRHFIN =V: p6 d4 s1

   TITEL  = PAW_PBE V_pv 07Sep2000
   POMASS =   50.941; ZVAL   =   11.000    mass and valenz
   ENMAX  =  263.673; ENMIN  =  197.755 eV

   TITEL  = PAW_PBE Cr_pv 02Aug2007
   POMASS =   51.996; ZVAL   =   12.000    mass and valenz
   ENMAX  =  265.681; ENMIN  =  199.261 eV

   TITEL  = PAW_PBE Ti_pv 07Sep2000
   POMASS =   47.880; ZVAL   =   10.000    mass and valenz
   ENMAX  =  222.335; ENMIN  =  166.751 eV

  PAW_PBE V_pv 07Sep2000                :
  PAW_PBE Cr_pv 02Aug2007               :
  PAW_PBE Ti_pv 07Sep2000               :

 POSCAR: V  Cr Ti
  positions in cartesian coordinates
 exchange correlation table for  LEXCH =        8
   RHO(1)=    0.500       N(1)  =     2000
   RHO(2)=  100.500       N(2)  =     4000

 ion  position               nearest neighbor table
   1  0.004  0.993  0.003- 114 2.58   2 2.59  22 2.59  28 2.60  95 2.62   5 2.62 115 2.69  23 2.78
                           110 2.85  21 2.85 118 3.00
   2  0.999  0.006  0.205-  96 2.52   6 2.54   3 2.55  29 2.55 110 2.57   1 2.59  18 2.60  23 2.60
                             7 2.92
   3  1.000  0.999  0.398-   2 2.55  24 2.56 111 2.58  97 2.59  19 2.59   4 2.60  30 2.61   7 2.62

   4  0.001  1.000  0.599-  98 2.54  25 2.55 112 2.58   8 2.59  20 2.59   3 2.60  31 2.60   5 2.66
                           116 3.00
   5  0.001  0.003  0.804- 118 2.50 116 2.53  27 2.57  26 2.60 113 2.62   1 2.62  21 2.63   4 2.66
                            98 2.88 114 2.92 115 2.94
   6  0.005  0.200  0.198- 115 2.52   2 2.54  28 2.56  95 2.57   9 2.58  34 2.59  99 2.61   7 2.63
                           119 2.93
   7  0.002  0.202  0.400- 100 2.56  10 2.59  29 2.60  35 2.60   3 2.62   6 2.63  96 2.63   8 2.63
                             2 2.92
   8  0.006  0.201  0.603-  30 2.55   4 2.59  36 2.59  11 2.60 116 2.61  97 2.62   7 2.63 122 2.67

   9  0.001  0.397  0.197- 119 2.51 117 2.51  33 2.58   6 2.58  10 2.61  39 2.61 102 2.64  14 2.66
                           101 2.87 115 2.95
  10  0.003  0.402  0.400-  34 2.58   7 2.59  15 2.59  40 2.60 103 2.61  11 2.61   9 2.61  99 2.62

[...]

  16  0.003  0.604  0.601-  20 2.57  17 2.58  46 2.58  15 2.59  40 2.59 108 2.60 103 2.61  11 2.65
                           104 2.92
  17  0.003  0.596  0.796-  41 2.54 104 2.56  42 2.57  16 2.58 109 2.60  13 2.64  12 2.64  21 2.65
                           124 2.96
  18  0.999  0.800  0.188- 105 2.57   2 2.60  24 2.60 111 2.61  43 2.62  14 2.63  19 2.74  23 2.82
                            13 2.83 110 2.84
  19  0.000  0.800  0.399- 106 2.56  44 2.58   3 2.59  25 2.59 112 2.60  15 2.60  20 2.62  18 2.74

  20  0.001  0.801  0.601- 113 2.56  26 2.57  16 2.57 107 2.59   4 2.59  45 2.60  19 2.62  21 2.70

[...]

  27  0.199  0.200  0.004- 115 2.52  22 2.54  28 2.56   5 2.57  32 2.58  58 2.59  31 2.61  52 2.63
                           116 2.93
  28  0.202  0.197  0.201-   6 2.56  27 2.56  29 2.57  53 2.57  33 2.59   1 2.60  23 2.61  59 2.61
                            54 2.92 115 2.97
  29  0.200  0.200  0.399-   2 2.55  54 2.56  28 2.57  30 2.59   7 2.60  24 2.60  34 2.60  60 2.62

[...]

  49  0.395  0.999  0.394-  43 2.50  79 2.52  48 2.59  24 2.59  54 2.59  50 2.65  74 2.65  69 2.68
                           120 3.03
  50  0.387  0.994  0.593-  25 2.51  44 2.51  70 2.61  51 2.61  55 2.64  49 2.65 120 2.69 121 2.70
                            45 2.91
  51  0.402  0.002  0.802-  47 2.59  71 2.59  50 2.61  56 2.62  45 2.62  76 2.62  26 2.63  75 2.68
                           121 3.00
  52  0.401  0.202  0.001-  56 2.55  57 2.59  53 2.60  81 2.60  47 2.62  27 2.63  26 2.63  76 2.63
                            22 2.92
  53  0.399  0.200  0.200-  22 2.55  54 2.56  28 2.57  77 2.59  52 2.60  48 2.60  58 2.60  82 2.62

[...]

  72  0.600  1.000  0.001-  75 2.54  73 2.55  71 2.58  76 2.59  90 2.59  47 2.60  99 2.60  95 2.66
                           119 3.00
  73  0.601  0.999  0.197-  74 2.51  72 2.55  67 2.59  96 2.60 100 2.60  91 2.61  77 2.62  48 2.65

[...]

  83  0.603  0.408  0.602-  79 2.47  88 2.52  60 2.61  82 2.61 104 2.62  84 2.62  54 2.69 109 2.91
                           124 2.99
  84  0.595  0.408  0.801-  61 2.51  89 2.52 105 2.56  80 2.62  83 2.62  55 2.64 121 2.68 124 2.69
                            85 2.92
  85  0.602  0.604  0.002-  90 2.57 105 2.58 111 2.58  62 2.59  86 2.59  89 2.60  61 2.61  80 2.65
                            84 2.92
  86  0.601  0.601  0.201-  81 2.58  91 2.58  85 2.59  87 2.59  57 2.60 112 2.60  63 2.60 106 2.61

[...]

  91  0.601  0.800  0.200-  86 2.58  62 2.59  90 2.60  73 2.61 111 2.61  68 2.61  97 2.62  92 2.62
                            74 2.91
  92  0.601  0.801  0.402-  87 2.58  93 2.60 112 2.60  69 2.60  74 2.61  91 2.62  63 2.62  98 2.68
                           120 3.01
  93  0.603  0.800  0.602-  88 2.58  70 2.60  92 2.60  94 2.61 113 2.61  64 2.63 118 2.65 120 2.68
                           114 2.88
  94  0.601  0.801  0.803-  75 2.54  89 2.55 114 2.56  90 2.56  71 2.59  65 2.61  93 2.61  95 2.62
                           118 3.01
  95  0.805  0.003  1.000- 118 2.50 119 2.53   6 2.57  96 2.60  94 2.62   1 2.62 110 2.63  72 2.66
                            75 2.88 114 2.92 115 2.94
  96  0.801  0.999  0.197-   2 2.52  90 2.57 111 2.59  73 2.60  95 2.60  99 2.63  97 2.63   7 2.63

[...]

 109  0.827  0.631  0.826- 114 2.59 105 2.60  17 2.60  89 2.69 108 2.69 124 2.71 110 2.74  21 2.74
                            13 2.84  83 2.91
 110  0.811  0.804  0.002-   2 2.57  89 2.60 111 2.61  95 2.63 114 2.63 105 2.65  90 2.70 109 2.74
                            18 2.84   1 2.85
 111  0.802  0.801  0.199-  85 2.58   3 2.58 106 2.59  96 2.59  18 2.61  91 2.61 110 2.61 112 2.62

 112  0.801  0.802  0.400-   4 2.58 107 2.59 113 2.59  97 2.59  19 2.60  86 2.60  92 2.60 111 2.62

 113  0.804  0.801  0.600-  98 2.54 108 2.55 114 2.56  20 2.56 112 2.59  87 2.61  93 2.61   5 2.62
                           118 3.01
 114  0.799  0.810  0.798- 118 2.39  94 2.56 113 2.56   1 2.58 109 2.59  88 2.62 110 2.63  21 2.63
                            93 2.88   5 2.92  95 2.92
 115  0.005  0.200  0.004-  27 2.52   6 2.52  33 2.54 118 2.57 119 2.61 116 2.61 117 2.62   1 2.69
                           123 2.80  95 2.94   5 2.94   9 2.95  32 2.95  28 2.97
 116  0.010  0.201  0.805-  31 2.43  32 2.51   5 2.53 123 2.53  12 2.57  98 2.57   8 2.61 115 2.61
                            27 2.93   4 3.00  36 3.00 118 3.03 117 3.05 122 3.16
 117  0.009  0.404  0.009-  38 2.42 123 2.51  32 2.51   9 2.51  12 2.57 101 2.57 115 2.62  13 2.73
                            33 2.94  37 2.99  14 2.99 119 3.05 116 3.05 124 3.16
 118  0.809  0.000  0.808- 114 2.39   5 2.50  95 2.50 123 2.53 115 2.57  75 2.59  98 2.59  93 2.65
                             1 3.00  94 3.01 113 3.01 119 3.03 116 3.03
 119  0.806  0.201  0.009-  99 2.43   9 2.51  95 2.53 123 2.53 101 2.57  75 2.57  76 2.61 115 2.61
                             6 2.93  72 3.00 102 3.00 118 3.03 117 3.05 121 3.16
 120  0.599  0.004  0.598-  69 2.66  93 2.68  74 2.69  50 2.69  98 2.71  75 2.71  79 2.77 123 2.80
                           121 2.98 122 2.98  92 3.01  70 3.01  49 3.03
 121  0.598  0.201  0.798-  56 2.66  76 2.67  84 2.68  50 2.70 101 2.70  75 2.71  79 2.77 123 2.80
                           120 2.98  80 2.99  51 3.00  55 3.02 124 3.04 119 3.16
 122  0.799  0.202  0.597- 100 2.66   8 2.67 104 2.68  74 2.70  12 2.70  98 2.71  79 2.77 123 2.80
                           120 2.98  11 2.99  97 3.00  78 3.02 124 3.04 116 3.16
 123  0.821  0.203  0.820- 117 2.51 118 2.53 116 2.53 119 2.53 115 2.80 120 2.80 122 2.80 121 2.80
                           124 2.84  12 2.97 101 2.97  75 3.01  98 3.01
 124  0.801  0.407  0.800-  13 2.66  84 2.69 104 2.69  12 2.70 101 2.70 109 2.71  79 2.78 123 2.84
                            17 2.96 105 2.96  83 2.99 122 3.04 121 3.04 117 3.16

  LATTYP: Found a base centered monoclinic cell.
 ALAT       =    15.0482117230
 B/A-ratio  =     1.4081981607
 C/A-ratio  =     1.6569313785
 COS(beta)  =    -0.9052205732

  Lattice vectors:

 A1 = (   4.3071057600,   6.1309426610, -10.6177469370)
 A2 = ( -12.9951470410,   0.0135483230,  -0.0223585750)
 A3 = (  13.0316404910,  -0.0404660660,  21.2572762500)

Analysis of symmetry for initial positions (statically):
 Subroutine PRICEL returns:
 Original cell was already a primitive cell.

 Routine SETGRP: Setting up the symmetry group for a
 base centered monoclinic supercell.

 Subroutine GETGRP returns: Found  1 space group operations
 (whereof  1 operations were pure point group operations)
 out of a pool of  4 trial point group operations.

The static configuration has the point symmetry C_1 .

Analysis of symmetry for dynamics (positions and initial velocities):
 Subroutine PRICEL returns:
 Original cell was already a primitive cell.

 Routine SETGRP: Setting up the symmetry group for a
 base centered monoclinic supercell.

 Subroutine GETGRP returns: Found  1 space group operations
 (whereof  1 operations were pure point group operations)
 out of a pool of  4 trial point group operations.

The dynamic configuration has the point symmetry C_1 .

 Subroutine INISYM returns: Found  1 space group operations
 (whereof  1 operations are pure point group operations),
 and found     1 'primitive' translations

                                     Primitive cell

  volume of cell :    1689.3617

  direct lattice vectors                    reciprocal lattice vectors
    12.995147041 -0.013548323  0.022358575     0.076899476  0.027363571  0.046994778
    -4.344442071 12.248515902 -0.022934774     0.000004010  0.081732338  0.047195846
    -4.307105760 -6.130942661 10.617746937    -0.000161924  0.000118924  0.094184924

  length of vectors
    12.995173338 12.996185776 12.995236356     0.094184943  0.094380205  0.094185138

  position of ions in fractional coordinates (direct lattice)
     0.004054373  0.992579150  0.003182328
     0.999420279  0.005571958  0.204594324
     0.999960736  0.999196711  0.398397370
     0.001418830  0.999545179  0.598975720
     0.000879791  0.003451929  0.804481360
     0.004806830  0.200049340  0.197917753
     0.001953049  0.202310470  0.399812343
     0.005794458  0.201466403  0.603368216
     0.001033176  0.397233233  0.196686488
     0.002946307  0.401687235  0.399521363
     0.001858955  0.398899394  0.598917750
     0.009665647  0.400085296  0.809859173
     0.005828838  0.612038757  0.004949887
     0.001411237  0.603400802  0.200684507
     0.002071493  0.601317211  0.400547761
     0.003121992  0.603567607  0.600848082
[...]
   -.452E+02 -.231E+02 -.186E+01   0.451E+02 0.232E+02 0.169E+01   0.138E+00 -.127E+00 0.167E+00   0.375E-02 0.699E-02 0.336E-02
   -.391E+02 0.109E+02 0.163E+02   0.395E+02 -.103E+02 -.164E+02   -.448E+00 -.614E+00 0.572E-01   0.819E-02 0.116E-01 0.227E-02
   -.868E+02 0.274E+02 -.406E+01   0.870E+02 -.270E+02 0.418E+01   -.245E+00 -.424E+00 -.132E+00   0.157E-01 0.103E-01 0.584E-02
   -.474E+02 0.779E+02 -.324E+02   0.477E+02 -.780E+02 0.327E+02   -.246E+00 0.103E+00 -.341E+00   0.401E-02 0.112E-01 0.133E-01
   -.385E+02 0.390E+02 -.268E+02   0.381E+02 -.387E+02 0.272E+02   0.368E+00 -.254E+00 -.471E+00   -.137E-02 0.539E-02 0.758E-02
   -.305E+02 0.101E+02 -.575E+01   0.302E+02 -.103E+02 0.602E+01   0.274E+00 0.160E+00 -.276E+00   -.922E-03 0.446E-02 0.206E-02
   -.960E+02 -.131E+02 0.366E+02   0.965E+02 0.132E+02 -.368E+02   -.440E+00 -.265E-01 0.108E+00   0.290E-02 0.699E-02 0.660E-03
   -.562E+02 -.883E+02 -.705E+01   0.563E+02 0.889E+02 0.695E+01   -.164E+00 -.611E+00 0.985E-01   0.759E-02 0.143E-02 0.131E-02
   -.348E+02 -.341E+02 -.765E+02   0.350E+02 0.339E+02 0.766E+02   -.135E+00 0.235E+00 -.820E-01   0.547E-02 0.532E-02 0.121E-01
   -.660E+01 0.749E+01 -.464E+02   0.671E+01 -.754E+01 0.465E+02   -.991E-01 0.408E-01 -.105E+00   -.698E-03 -.808E-03 0.101E-02
   0.508E+01 0.125E+02 -.178E+02   -.504E+01 -.126E+02 0.179E+02   -.350E-01 0.827E-01 -.108E+00   -.157E-02 -.226E-02 -.213E-02
   0.581E+01 -.339E+02 0.276E+02   -.566E+01 0.341E+02 -.276E+02   -.147E+00 -.134E+00 -.325E-01   0.264E-02 -.361E-02 -.589E-02
   0.530E+02 -.624E+02 0.169E+02   -.528E+02 0.625E+02 -.169E+02   -.219E+00 -.978E-01 0.518E-04   0.137E-01 -.123E-01 0.170E-02
   0.272E+01 -.998E+02 -.530E+02   -.236E+01 0.100E+03 0.537E+02   -.365E+00 -.207E+00 -.714E+00   0.721E-02 -.912E-02 0.642E-02
   0.276E+01 -.471E+02 -.314E+02   -.273E+01 0.471E+02 0.315E+02   -.300E-01 -.718E-01 -.557E-01   0.396E-02 -.492E-02 -.335E-03
   0.120E+02 -.623E+01 -.206E+02   -.120E+02 0.625E+01 0.207E+02   -.114E-01 -.105E-01 -.191E-01   0.222E-02 -.651E-02 -.560E-02
   0.452E+02 0.126E+01 0.460E+01   -.448E+02 -.139E+01 -.508E+01   -.420E+00 0.134E+00 0.488E+00   0.103E-01 -.774E-02 -.108E-01
   0.164E+03 0.238E+02 -.136E+01   -.163E+03 -.238E+02 0.146E+01   -.137E+01 0.196E-01 -.117E+00   0.178E-01 0.472E-02 0.639E-02
   0.554E+02 -.535E+02 0.599E+02   -.554E+02 0.531E+02 -.600E+02   -.395E-01 0.360E+00 0.145E+00   0.140E-01 -.448E-02 0.203E-01
   -.226E+02 -.389E+02 -.270E+01   0.228E+02 0.386E+02 0.294E+01   -.176E+00 0.308E+00 -.244E+00   0.608E-02 -.108E-02 0.779E-02
   -.233E+02 -.237E+02 -.157E+02   0.234E+02 0.238E+02 0.159E+02   -.109E+00 -.147E+00 -.199E+00   0.640E-02 0.723E-03 -.884E-03
   0.263E+02 0.226E+02 -.156E+02   -.262E+02 -.225E+02 0.156E+02   -.101E+00 -.531E-01 0.511E-01   0.135E-01 0.559E-02 -.639E-02
   -.118E+01 0.117E+02 0.889E+00   0.162E+01 -.113E+02 -.862E+00   -.442E+00 -.450E+00 -.336E-01   0.501E-02 0.107E-01 0.441E-02
   0.242E+02 0.254E+02 -.282E+02   -.240E+02 -.254E+02 0.283E+02   -.210E+00 0.601E-01 -.111E+00   0.887E-02 0.705E-02 0.125E-01
   -.500E+02 0.977E+01 -.757E+02   0.504E+02 -.104E+02 0.761E+02   -.458E+00 0.626E+00 -.386E+00   0.405E-02 0.251E-02 0.790E-02
   -.138E+03 -.734E+02 -.653E+02   0.138E+03 0.736E+02 0.651E+02   0.145E+00 -.221E+00 0.212E+00   0.180E-02 0.343E-02 0.114E-02
   -.596E+02 -.631E+02 0.317E+02   0.597E+02 0.632E+02 -.317E+02   -.128E+00 -.121E+00 0.245E-01   0.247E-02 0.687E-02 0.131E-02
   -.502E+02 0.385E+01 0.212E+02   0.502E+02 -.416E+01 -.211E+02   0.280E-01 0.297E+00 -.121E+00   0.253E-02 0.578E-02 0.329E-02
   -.274E+02 0.429E+02 -.335E+02   0.278E+02 -.424E+02 0.335E+02   -.388E+00 -.521E+00 -.741E-02   0.406E-02 0.731E-02 0.451E-02
   -.332E+02 0.474E+02 -.267E+02   0.333E+02 -.476E+02 0.269E+02   -.167E+00 0.153E+00 -.186E+00   0.199E-02 0.208E-02 0.440E-02
   -.915E+02 0.350E+02 -.498E+02   0.911E+02 -.353E+02 0.500E+02   0.408E+00 0.303E+00 -.175E+00   -.191E-02 -.166E-03 -.182E-03
   -.117E+03 -.134E+02 0.319E+02   0.116E+03 0.136E+02 -.322E+02   0.296E+00 -.158E+00 0.308E+00   0.981E-03 0.242E-02 0.182E-02
   -.460E+02 -.185E+02 0.168E+02   0.461E+02 0.185E+02 -.169E+02   -.760E-01 -.150E-02 0.109E+00   0.163E-02 -.273E-02 0.897E-03
   -.393E+02 -.402E+01 -.264E+02   0.394E+02 0.396E+01 0.265E+02   -.740E-01 0.508E-01 -.120E+00   0.135E-02 0.178E-04 -.101E-03
   -.362E+02 0.230E+02 -.457E+02   0.361E+02 -.230E+02 0.455E+02   0.109E+00 -.107E-02 0.179E+00   -.224E-02 0.548E-03 -.335E-02
   -.554E+02 0.239E+02 -.311E+02   0.554E+02 -.239E+02 0.314E+02   -.381E-01 -.433E-01 -.305E+00   -.696E-02 -.533E-02 -.661E-02
[...]
   -.322E+02 0.186E+01 0.202E+02   0.321E+02 -.187E+01 -.202E+02   0.992E-01 0.166E-01 -.708E-01   -.124E-01 -.338E-02 0.986E-02
   0.211E+02 -.203E+02 0.705E+01   -.210E+02 0.204E+02 -.725E+01   -.858E-01 -.470E-01 0.203E+00   -.514E-02 0.977E-03 -.250E-02
   0.749E+01 0.236E+02 0.205E+02   -.759E+01 -.236E+02 -.210E+02   0.101E+00 -.561E-01 0.529E+00   -.621E-02 0.811E-02 -.109E-01
   -.769E+02 0.163E+03 -.316E+02   0.771E+02 -.163E+03 0.316E+02   -.173E+00 0.634E+00 0.857E-01   -.152E-01 0.198E-01 -.136E-01
   0.470E+01 0.283E+02 0.241E+02   -.488E+01 -.282E+02 -.243E+02   0.178E+00 -.735E-01 0.246E+00   -.146E-03 0.102E-01 0.560E-02
   0.105E+03 -.732E+02 0.142E+03   -.104E+03 0.732E+02 -.142E+03   -.877E+00 -.554E-01 0.370E+00   0.513E-02 0.116E-01 -.109E-01
   0.130E+03 -.134E+03 0.135E+03   -.130E+03 0.134E+03 -.135E+03   -.195E+00 -.537E+00 -.628E+00   0.190E-02 -.937E-03 0.235E-02
   0.102E+03 -.527E+02 0.137E+03   -.102E+03 0.523E+02 -.137E+03   0.139E+00 0.446E+00 0.483E+00   -.117E-01 0.832E-02 -.146E-01
   0.115E+03 -.696E+02 0.136E+03   -.116E+03 0.691E+02 -.135E+03   0.621E+00 0.474E+00 -.548E+00   -.158E-01 0.411E-02 0.228E-02
   0.162E+02 -.124E+03 -.449E+02   -.163E+02 0.123E+03 0.446E+02   0.121E+00 0.211E+00 0.318E+00   -.127E-02 0.306E-02 -.762E-03
   -.931E+02 -.570E+02 0.865E+02   0.928E+02 0.570E+02 -.866E+02   0.320E+00 0.302E-01 0.265E-01   -.264E-02 -.198E-02 0.234E-03
   0.129E+03 0.213E+02 -.492E+02   -.129E+03 -.212E+02 0.490E+02   -.986E-01 -.116E+00 0.283E+00   0.225E-02 -.207E-03 -.278E-02
   0.195E+03 -.141E+03 0.238E+03   -.195E+03 0.141E+03 -.238E+03   -.103E+00 0.192E-01 -.160E+00   -.505E-02 0.177E-02 -.761E-02
   0.226E+02 0.541E+02 0.683E+02   -.226E+02 -.539E+02 -.684E+02   0.699E-01 -.104E+00 0.550E-01   0.214E-02 -.228E-01 -.102E-01
   0.990E+00 -.670E+00 0.123E+01   0.297E-11 0.767E-12 0.173E-11   -.994E+00 0.656E+00 -.122E+01   -.413E-02 0.105E-01 -.166E-04

 POSITION                                       TOTAL-FORCE (eV/Angst)
     -4.27322     12.13806      0.01112        -0.002059      0.002424     -0.002578
     12.08220     -1.19965      2.19455         0.000988     -0.000244      0.000948
      6.93774      9.78258      4.22952        -0.002302     -0.001479     -0.000420
     -6.90388      8.57064      6.33688        -0.000193      0.002186      0.000546
     -3.46855     -4.88996      8.54172        -0.000964     -0.001943     -0.002390
     -1.65909      1.23682      2.09696         0.000816     -0.001137     -0.004838
     -2.57558      0.02675      4.24051        -0.002693      0.000400      0.001104
     -3.39873     -1.23163      6.40192        -0.004130     -0.002756     -0.000232
     -2.55948      3.65963      2.07928        -0.001636     -0.002862     -0.002977
     -3.42760      2.47059      4.23287        -0.002323      0.003409     -0.002518
     -4.28844      1.21397      6.35005         0.001202     -0.000362     -0.001341
     -5.10069     -0.06488      8.58992         0.001079     -0.001510      0.003847
     -2.60454      7.46614      0.03865         0.004093     -0.001071      0.005889
     -3.46747      6.16036      2.11701        -0.002433     -0.004347      0.004679
     -4.31067      4.90948      4.23917        -0.000067      0.002517      0.001398
     -5.16951      3.70900      6.36588        -0.000937      0.001781      0.001767
     -5.98069      2.41598      8.44086        -0.002493     -0.000088      0.004006
      8.69636      8.63837      1.99636        -0.004015     -0.004186     -0.001064
     -5.19335      7.35568      4.21541        -0.002179     -0.000806     -0.000753
     -6.05289      6.12553      6.36501         0.001300      0.001891     -0.000206
     -6.94125      4.88250      8.58581         0.000105      0.000213      0.002257
     -1.65495     -6.05652     10.60677         0.000772     -0.000217      0.001044
     -2.66591     10.94669      1.94790        -0.001340     -0.000206     -0.001963
     -3.49292      9.78593      4.17090        -0.003040      0.001083     -0.000733
     -4.35203      8.55836      6.35408         0.003526      0.000936     -0.001819
     -5.21213      7.32716      8.47377         0.000963      0.001901     -0.000032
      1.69725      2.42355      0.04159        -0.003691     -0.002685     -0.002088
      0.89772      1.18261      2.13021         0.002221      0.002403      0.004876
      0.01936      0.00066      4.23225        -0.001866      0.001864      0.004012
     -0.84918     -1.20660      6.35538         0.001661     -0.004446     -0.001579
     -1.78125     -2.45947      8.52339         0.000204     -0.003945     -0.003020
      0.84133      4.86208     -0.00314        -0.000724     -0.002509     -0.003443
      0.02390      3.62488      2.11318         0.002266     -0.002145      0.002367
     -0.84564      2.45298      4.23772         0.001283     -0.003347     -0.002159
     -1.71310      1.25151      6.36115         0.005492     -0.004689     -0.001377
     -2.55716      0.02430      8.50192         0.001214     -0.001454     -0.000954
     -0.00424      7.38488     -0.00371         0.006848     -0.001180     -0.001018
     -0.88019      6.06481      2.04549         0.003011     -0.002444      0.003353
     -1.71337      4.88585      4.22818        -0.000090     -0.001478     -0.000505
     -2.57771      3.68175      6.36518         0.003209      0.002177     -0.000067
     -3.44405      2.46359      8.50481        -0.001018     -0.002008     -0.004619
     -5.32581      3.68071     10.58310         0.002499     -0.001759     -0.005123
     -1.68914      8.54839      2.15838        -0.000809      0.000658     -0.000944
     -2.61404      7.33271      4.21613         0.001476      0.002884     -0.002064
     -3.45377      6.11041      6.36337        -0.000694      0.004063     -0.001265
     -4.33310      4.89217      8.49672         0.002748      0.002161      0.000036
     -3.45531      6.10792     10.59410         0.001460     -0.000236     -0.002497
     -0.02787     11.01108      2.04918        -0.000120      0.002104     -0.002688
     -0.90304      9.81120      4.17097        -0.002430     -0.000555     -0.004446
     -1.84331      8.53198      6.28724         0.001023      0.004171     -0.001671
      1.76112     -4.89746      8.52231         0.001515      0.002278     -0.001366
      4.32356      2.46597      0.01562         0.001547      0.001883     -0.001456
      3.46405      1.21866      2.12281         0.002938      0.003658      0.001074
      2.58213      0.01008      4.20366        -0.001738     -0.004762     -0.005292
      1.68720     -1.21072      6.36128         0.007132     -0.000287     -0.004930
      0.80360     -2.46195      8.52130         0.004530      0.002747     -0.001764
      3.44947      4.90203      0.02148        -0.002725      0.003176     -0.001929
      2.60080      3.67170      2.12714        -0.000471     -0.004010     -0.001022
      1.74558      2.45563      4.24951        -0.000292     -0.001606     -0.001129
      0.86570      1.25387      6.37652         0.002511     -0.004320      0.002920
[...]
      7.03798      9.82486      0.02530         0.001493      0.000973      0.001614
      6.09089      8.57778      2.11315        -0.001877      0.000441      0.002541
      5.20371      7.35416      4.25047        -0.001638     -0.000736      0.002669
      4.37854      6.11746      6.37265        -0.001980      0.003660      0.002044
      3.42693      5.01608      8.47323         0.002228     -0.006172      0.000223
     -0.81935      2.42350      0.04227        -0.001502     -0.000027     -0.002378
     -4.21414     -2.47216      8.54624        -0.006429     -0.002463     -0.001399
     -1.67021      4.89854      0.08159         0.000655     -0.003232     -0.000497
      7.02973     -4.96226      8.59550        -0.001825      0.004386     -0.000383
      9.56370      2.39912      0.10911         0.002096      0.000549     -0.006643
      5.19285     -3.63128      6.36424        -0.002109     -0.002072     -0.004594
      3.46342     -2.43048      8.47761         0.003239      0.008550     -0.001130
      6.92863     -1.20497      6.35559        -0.006009      0.005105      0.004587
      6.25482     -2.55532      8.71946         0.003329     -0.000990      0.005320
      5.19637      0.06688      8.50510         0.001342      0.003968      0.004786
    total drift:                               -0.008773     -0.003314      0.002728

  FREE ENERGIE OF THE ION-ELECTRON SYSTEM (eV)
  free  energy   TOTEN  =     -1104.52480995 eV

  energy  without entropy=    -1104.50757981  energy(sigma->0) =    -1104.51906657

 reached required accuracy - stopping structural energy minimisation

 total charge

# of ion       s       p       d       tot
    1        0.352   6.225   3.025   9.602
    2        0.376   6.243   3.115   9.733
    3        0.358   6.235   3.084   9.677
    4        0.358   6.239   3.077   9.674
    5        0.359   6.248   3.050   9.656
    6        0.362   6.245   3.084   9.691
    7        0.356   6.239   3.053   9.648
    8        0.355   6.233   3.056   9.644
    9        0.359   6.247   3.053   9.659
   10        0.358   6.239   3.058   9.655
   11        0.353   6.235   3.038   9.625
   12        0.354   6.229   3.054   9.637
   13        0.352   6.215   3.026   9.593
   14        0.357   6.238   3.067   9.663
   15        0.358   6.239   3.068   9.665
   16        0.359   6.236   3.071   9.666
   17        0.368   6.236   3.076   9.680
   18        0.350   6.217   3.029   9.596
   19        0.356   6.238   3.049   9.643
   20        0.358   6.238   3.064   9.659
   21        0.355   6.222   3.026   9.602
   22        0.376   6.243   3.115   9.733
   23        0.350   6.218   3.019   9.587
   24        0.355   6.238   3.046   9.639
   25        0.357   6.235   3.080   9.672
   26        0.358   6.236   3.073   9.666
   27        0.362   6.245   3.084   9.691
   28        0.361   6.244   3.078   9.683
   29        0.359   6.236   3.084   9.679
   30        0.355   6.236   3.063   9.654
   31        0.357   6.243   3.064   9.664
   32        0.359   6.247   3.053   9.659
   33        0.362   6.249   3.065   9.676
   34        0.359   6.240   3.072   9.672
   35        0.359   6.237   3.071   9.667
   36        0.358   6.237   3.074   9.669
   37        0.357   6.238   3.067   9.663
   38        0.358   6.241   3.080   9.679
   39        0.356   6.237   3.054   9.648
   40        0.357   6.237   3.070   9.664
   41        0.358   6.233   3.088   9.679
   42        0.350   6.217   3.029   9.596
   43        0.371   6.239   3.098   9.708
   44        0.359   6.231   3.100   9.690
   45        0.358   6.239   3.053   9.650
   46        0.357   6.239   3.064   9.660
   47        0.358   6.235   3.084   9.677
   48        0.355   6.237   3.046   9.639
   49        0.357   6.227   3.087   9.670
   50        0.355   6.223   3.079   9.658
   51        0.352   6.231   3.043   9.626
   52        0.356   6.239   3.053   9.648
   53        0.359   6.236   3.083   9.679
   54        0.357   6.241   3.035   9.633
   55        0.357   6.230   3.073   9.660
   56        0.356   6.230   3.063   9.649
   57        0.358   6.239   3.058   9.655
   58        0.359   6.240   3.072   9.672
   59        0.358   6.240   3.067   9.665
   60        0.355   6.236   3.054   9.646
[...]
  110        0.355   6.222   3.026   9.602
  111        0.357   6.239   3.064   9.660
  112        0.357   6.237   3.067   9.662
  113        0.359   6.235   3.093   9.687
  114        0.374   6.249   3.097   9.719
  115        0.416   6.338   4.152  10.906
  116        0.425   6.317   4.244  10.986
  117        0.423   6.312   4.246  10.981
  118        0.425   6.314   4.261  11.000
  119        0.425   6.317   4.244  10.986
  120        0.355   6.273   2.098   8.727
  121        0.354   6.273   2.100   8.728
  122        0.354   6.273   2.100   8.728
  123        0.368   6.295   2.147   8.810
  124        0.353   6.276   2.085   8.714
tot         44.631 773.756 381.0631199.450