 vasp.6.4.2 20Jul23 (build Sep 20 2024 16:56:05) complex
 executed on              LinuxNV date 2025.02.07  19:53:30
 OpenACC runtime initialized ...    4 GPUs detected

 INCAR:
   PREC = Accurate
   ENCUT = 520
   EDIFF = 1e-06
   ISMEAR = 1
   SIGMA = 0.2
   NSW = 0
   IBRION = -1
   LWAVE = .FALSE.
   LCHARG = .TRUE.
   LREAL = .FALSE.
   ALGO = Normal

 POTCAR:    PAW_PBE Cr_pv 02Aug2007
 POTCAR:    PAW_PBE Ti_pv 07Sep2000
 POTCAR:    PAW_PBE V_pv 07Sep2000
 POTCAR:    PAW_PBE W_sv 04Sep2015
 POTCAR:    PAW_PBE Zr_sv 04Jan2005
 POTCAR:    PAW_PBE Cr_pv 02Aug2007
   VRHFIN =Cr : p6d5s1

   TITEL  = PAW_PBE Cr_pv 02Aug2007
   POMASS =   51.996; ZVAL   =   12.000    mass and valenz
   ENMAX  =  265.681; ENMIN  =  199.261 eV

   TITEL  = PAW_PBE Ti_pv 07Sep2000
   POMASS =   47.880; ZVAL   =   10.000    mass and valenz
   ENMAX  =  222.335; ENMIN  =  166.751 eV

   TITEL  = PAW_PBE V_pv 07Sep2000
   POMASS =   50.941; ZVAL   =   11.000    mass and valenz
   ENMAX  =  263.673; ENMIN  =  197.755 eV

   TITEL  = PAW_PBE W_sv 04Sep2015
   POMASS =  183.850; ZVAL   =   14.000    mass and valenz
   ENMAX  =  223.057; ENMIN  =  167.293 eV

   TITEL  = PAW_PBE Zr_sv 04Jan2005
   POMASS =   91.224; ZVAL   =   12.000    mass and valenz
   ENMAX  =  229.898; ENMIN  =  172.424 eV

  PAW_PBE Cr_pv 02Aug2007               :
  PAW_PBE Ti_pv 07Sep2000               :
  PAW_PBE V_pv 07Sep2000                :
  PAW_PBE W_sv 04Sep2015                :
  PAW_PBE Zr_sv 04Jan2005               :

 POSCAR: Cr Ti V  W  Zr
  positions in direct lattice
  velocities in cartesian coordinates
 exchange correlation table for  LEXCH =        8
   RHO(1)=    0.500       N(1)  =     2000
   RHO(2)=  100.500       N(2)  =     4000

 ion  position               nearest neighbor table
   1  0.246  0.746  0.007-  22 2.44  30 2.53  53 2.53  59 2.59  28 2.60  36 2.65 124 2.67 127 2.74
                            29 2.95  52 3.00
   2  0.247  0.749  0.500-  34 2.51  24 2.51  61 2.55  57 2.57  55 2.57  32 2.57  26 2.62  40 2.88
                            60 2.91  89 2.94  62 2.95  56 2.97  33 3.02
   3  0.749  0.499  0.750- 106 2.42  85 2.53 108 2.55  77 2.56 113 2.57  75 2.59 114 2.59  83 2.61
                           109 3.00  84 3.01 121 3.01 112 3.02 107 3.02  27 3.03
   4  0.999  0.995  0.501-  32 2.61  34 2.65 120 2.65 118 2.65  13 2.74  12 2.74  96 2.77  98 2.77
                            33 2.99 126 2.99  14 3.02  11 3.04  97 3.04
   5  0.002  0.252  0.001-  20 2.62  94 2.66 100 2.67  10 2.67  15 2.67 102 2.68 108 2.69  16 2.69
                            17 2.92  19 2.93 101 2.97  21 2.99  44 3.03
   6  0.132  0.380  0.372-  23 2.61  54 2.63  56 2.63  46 2.65  48 2.72  17 2.74  25 2.75 126 2.83
                            16 2.92  47 2.96  24 3.00
   7  0.627  0.130  0.126-  63 2.58  72 2.63 103 2.65  95 2.66 101 2.66  70 2.68  93 2.70  64 2.76
                            71 2.97  94 2.98  65 3.00  38 3.01  87 3.02  69 3.03
   8  0.877  0.629  0.125-  29 2.63  23 2.63 117 2.65  31 2.66  21 2.67 115 2.67 109 2.68 110 2.69
                           116 2.96 102 2.98  79 3.02 111 3.03 114 3.04
   9  0.000  0.998  0.001-  36 2.58 116 2.58  94 2.60  15 2.61 100 2.62 122 2.62  30 2.63  10 2.64

  10  0.129  0.122  0.127-  37 2.43  46 2.58  17 2.59  11 2.60   9 2.64  44 2.65  39 2.65   5 2.67
                            12 2.87
  11  0.002  0.998  0.249-  12 2.56 116 2.59  10 2.60  30 2.62  94 2.62  32 2.63  96 2.63 118 2.65
                             4 3.04
  12  0.135  0.116  0.365-  39 2.47  11 2.56  46 2.60  40 2.64  17 2.72  48 2.73   4 2.74 126 2.83
                            10 2.87 123 2.94
  13  0.136  0.117  0.635-  42 2.27  50 2.57  14 2.62  48 2.66  19 2.73 126 2.74   4 2.74  40 2.77
                            15 2.90
  14  0.998  0.995  0.751- 122 2.57  98 2.58  36 2.60  13 2.62 100 2.63  15 2.64 120 2.65  34 2.70
                             4 3.02
  15  0.127  0.120  0.875-  37 2.52  42 2.57  19 2.59   9 2.61  50 2.63  14 2.64  44 2.67   5 2.67
                            13 2.90
  16  0.130  0.381  0.130-  52 2.54  23 2.60  46 2.60  54 2.60  21 2.63  17 2.63  44 2.65   5 2.69
                             6 2.92
  17  1.000  0.248  0.243-  10 2.59  94 2.59 102 2.62  16 2.63  96 2.68  12 2.72 104 2.74   6 2.74
                             5 2.92 126 3.17
  18  0.131  0.378  0.633-  58 2.47  50 2.57  27 2.59  56 2.62  48 2.69  19 2.70  25 2.71 126 2.76
                            20 2.92
  19  0.999  0.248  0.759- 100 2.57  20 2.59  15 2.59 108 2.60  18 2.70  98 2.71  13 2.73 106 2.75
                             5 2.93 126 3.06
  20  0.127  0.377  0.875-  58 2.54  21 2.57  27 2.59  19 2.59  52 2.60  50 2.61  44 2.62   5 2.62
                            18 2.92
  21  0.003  0.499  0.998-  28 2.54  20 2.57 102 2.62 114 2.63  16 2.63 108 2.63   8 2.67  22 2.68
                             5 2.99
  22  0.129  0.631  0.124-   1 2.44  54 2.59  31 2.59  52 2.62  29 2.63  23 2.66  21 2.68  60 2.74

  23  0.002  0.504  0.252- 111 2.59  16 2.60   6 2.61 102 2.61 104 2.62   8 2.63  24 2.63  22 2.66

  24  0.127  0.628  0.380-   2 2.51  33 2.58  31 2.59  56 2.63  23 2.63  54 2.64  60 2.66  25 2.66
                            32 2.89   6 3.00
  25  0.996  0.504  0.505- 113 2.55  26 2.55 111 2.59 104 2.65  24 2.66 106 2.67  18 2.71   6 2.75
                           126 3.15
  26  0.122  0.623  0.625-  62 2.47  25 2.55  56 2.59  33 2.60  27 2.60  35 2.62   2 2.62  58 2.65

  27  1.000  0.499  0.753- 108 2.57 114 2.58  20 2.59  18 2.59 106 2.60  26 2.60  28 2.62 113 2.63
                             3 3.03
  28  0.122  0.625  0.879-  21 2.54  29 2.56  62 2.57   1 2.60  35 2.61  27 2.62  52 2.65  58 2.67
                           124 3.04
  29  0.001  0.753  0.997-  36 2.49 122 2.55  28 2.56 116 2.60  30 2.62   8 2.63  22 2.63 114 2.66
                             1 2.95
  30  0.128  0.873  0.125-   1 2.53  31 2.58  37 2.58  29 2.62  39 2.62  11 2.62  60 2.62   9 2.63

[...]

  36  0.121  0.872  0.877-  29 2.49   9 2.58  14 2.60  35 2.62   1 2.65  62 2.68  37 2.72  42 2.73
                           127 3.04
  37  0.244  0.009  0.007-  10 2.43  15 2.52  38 2.58  30 2.58  59 2.59  43 2.70  36 2.72 127 2.76

  38  0.378  0.128  0.124-  46 2.55  63 2.57  37 2.58  44 2.60  70 2.62  72 2.64  64 2.65  39 2.69
                             7 3.01 123 3.03
  39  0.255  0.994  0.252-  12 2.47  59 2.56  30 2.62  10 2.65 123 2.66  32 2.67  38 2.69  60 2.81
                            40 2.88  64 2.89
  40  0.258  0.987  0.491-  61 2.51  32 2.59  12 2.64 123 2.66  34 2.68  41 2.71  13 2.77   2 2.88
                            39 2.88  66 2.89
  41  0.377  0.123  0.623-  68 2.51  48 2.53  42 2.59  74 2.62  76 2.64  66 2.64  50 2.66  40 2.71
                           123 3.00
  42  0.243  0.003  0.740-  13 2.27  15 2.57  41 2.59  34 2.60  61 2.65 127 2.70  36 2.73  43 2.75

[...]

  64  0.495  0.996  0.255- 123 2.58  88 2.63  59 2.63  87 2.64  65 2.65  38 2.65   7 2.76 125 2.87
                            66 2.89  39 2.89
  65  0.625  0.126  0.374- 105 2.58  97 2.61  74 2.62  95 2.64  72 2.64  64 2.65 103 2.65  66 2.65
                            96 2.88 123 2.99   7 3.00
  66  0.497  0.993  0.494-  90 2.59  88 2.59 123 2.61  61 2.63  41 2.64  65 2.65  67 2.70  89 2.85
                            64 2.89  40 2.89
  67  0.622  0.125  0.623-  68 2.44  74 2.57 105 2.57  76 2.61  97 2.62 107 2.64  99 2.66  66 2.70
                            98 2.90
  68  0.506  0.008  0.739-  67 2.44  41 2.51  90 2.58  69 2.61  92 2.69  43 2.70  61 2.73 127 2.77

[...]

  79  0.626  0.626  0.124-  86 2.50 110 2.59  80 2.60  78 2.60 117 2.60 109 2.61 115 2.63 125 2.75
                             8 3.02
  80  0.501  0.504  0.250-  81 2.59  79 2.60  45 2.60  47 2.61  73 2.62  53 2.63  71 2.64  55 2.65
                           125 3.07
  81  0.622  0.628  0.377- 119 2.57  82 2.58  80 2.59 110 2.61 112 2.61 117 2.61  89 2.62 125 2.65

[...]

  84  0.500  0.497  0.748-  75 2.55  49 2.58  77 2.60  51 2.61  83 2.62  85 2.62 124 2.64  57 2.68
                             3 3.01
  85  0.629  0.622  0.870-   3 2.53 121 2.58 109 2.59  84 2.62 115 2.62  91 2.63  78 2.64  86 2.65
                           124 3.08
  86  0.507  0.745  0.005-  79 2.50  53 2.59  87 2.60  85 2.65  59 2.66 124 2.68  92 2.68 127 2.79
                           115 2.91 125 3.02
  87  0.626  0.880  0.123-  63 2.58  95 2.59  86 2.60  93 2.60 115 2.62 117 2.62  64 2.64 125 2.68
                             7 3.02
  88  0.632  0.877  0.375-  97 2.53 117 2.53  95 2.55 119 2.57  66 2.59  64 2.63 125 2.63  89 2.64
                           118 2.91
  89  0.490  0.758  0.491-  61 2.53  55 2.55  90 2.61  81 2.62  88 2.64  57 2.66  83 2.80  66 2.85
                           125 2.86   2 2.94
  90  0.621  0.873  0.620-  91 2.56 119 2.58  68 2.58  66 2.59  97 2.59  89 2.61 121 2.65  99 2.66

[...]

 100  0.874  0.123  0.876-  93 2.54  19 2.57 101 2.59 107 2.61   9 2.62  14 2.63  99 2.63   5 2.67
                            98 2.86
 101  0.755  0.255  0.997- 108 2.54 100 2.59  77 2.60 102 2.63  71 2.64  69 2.65  94 2.65   7 2.66
                             5 2.97
 102  0.874  0.382  0.127- 109 2.59 103 2.60 110 2.61  23 2.61  21 2.62  17 2.62 101 2.63   5 2.68
                             8 2.98
 103  0.754  0.257  0.253-  96 2.50 104 2.52 102 2.60  73 2.61  71 2.62  65 2.65   7 2.65  94 2.68

[...]

 105  0.744  0.250  0.502-  67 2.57  65 2.58  75 2.59  73 2.59 106 2.68 104 2.69  96 2.70  98 2.72
                            74 2.91 126 3.07
 106  0.864  0.382  0.634-   3 2.42 107 2.56 112 2.59  27 2.60  25 2.67 105 2.68  19 2.75 126 2.80
                           108 2.88  75 2.90 113 2.91
 107  0.748  0.249  0.752-  98 2.51  77 2.56 106 2.56  69 2.57 108 2.61 100 2.61  75 2.63  67 2.64
                             3 3.02
 108  0.872  0.379  0.873- 101 2.54   3 2.55  27 2.57 109 2.57  19 2.60 107 2.61  21 2.63   5 2.69
                           106 2.88
 109  0.748  0.499  0.998- 108 2.57  77 2.57  85 2.59  71 2.59 102 2.59 114 2.60  79 2.61   8 2.68
                             3 3.00
 110  0.745  0.501  0.253- 104 2.55  73 2.58  79 2.59  71 2.60 102 2.61  81 2.61 111 2.63   8 2.69

 111  0.875  0.625  0.376-  33 2.57  25 2.59  23 2.59 119 2.62 110 2.63 112 2.63 117 2.65  31 2.66
                             8 3.03
 112  0.746  0.501  0.500-  83 2.55  73 2.58 104 2.59 106 2.59  75 2.60  81 2.61 113 2.61 111 2.63
                             3 3.02
 113  0.871  0.623  0.627-  25 2.55 121 2.56   3 2.57  35 2.60 112 2.61  33 2.62  27 2.63 119 2.64
                           106 2.91
 114  0.874  0.622  0.874-  35 2.58  27 2.58   3 2.59 109 2.60 121 2.62  21 2.63 115 2.64  29 2.66
                             8 3.04
 115  0.747  0.753  0.995-  92 2.56 122 2.56  87 2.62  85 2.62  79 2.63 114 2.64 116 2.65   8 2.67
                            86 2.91
 116  0.878  0.874  0.125-   9 2.58  11 2.59  29 2.60  93 2.62  95 2.62  31 2.64 115 2.65 117 2.66
                             8 2.96
 117  0.746  0.752  0.251-  88 2.53 118 2.55  79 2.60  81 2.61  87 2.62   8 2.65 111 2.65 116 2.66
                           125 3.04
[...]
    -0.000491893  0.000931600 12.077672293     0.000003371 -0.000006393  0.082797412

  length of vectors
    12.073070931 12.072183710 12.077672339     0.082828977  0.082835065  0.082797412

 FORCES acting on ions
    electron-ion (+dipol)            ewald-force                    non-local-force                 convergence-correction
   -.343E+02 -.957E+02 0.251E+02   0.335E+02 0.951E+02 -.248E+02   0.834E+00 0.561E+00 -.254E+00   0.293E-02 0.335E-02 -.278E-03
   -.925E+02 -.139E+03 0.113E+03   0.917E+02 0.138E+03 -.112E+03   0.845E+00 0.912E+00 -.103E+01   0.249E-02 0.290E-02 -.933E-03
   -.129E+02 -.587E+01 -.976E+00   0.126E+02 0.610E+01 0.108E+01   0.231E+00 -.237E+00 -.971E-01   0.108E-02 0.404E-02 -.238E-02
   -.143E+02 -.123E+03 0.100E+02   0.140E+02 0.122E+03 -.100E+02   0.323E+00 0.196E+00 -.595E-04   0.500E-02 0.507E-03 -.138E-02
   -.153E+01 0.105E+02 -.378E+02   0.139E+01 -.104E+02 0.378E+02   0.131E+00 -.320E-01 -.435E-01   0.119E-05 0.951E-03 -.213E-02
   0.794E+02 0.868E+02 -.446E+02   -.790E+02 -.864E+02 0.441E+02   -.397E+00 -.386E+00 0.421E+00   -.148E-03 -.239E-02 0.596E-02
   -.145E+02 0.165E+02 -.160E+02   0.145E+02 -.166E+02 0.159E+02   -.543E-02 0.157E+00 0.459E-01   -.174E-02 0.149E-02 0.445E-02
   -.469E+01 0.129E+02 -.224E+02   0.445E+01 -.131E+02 0.224E+02   0.243E+00 0.191E+00 0.604E-01   -.256E-02 -.331E-02 0.193E-03
   -.382E-01 -.651E+02 -.170E+02   0.117E+00 0.653E+02 0.170E+02   -.806E-01 -.199E+00 -.688E-01   0.255E-02 0.254E-02 0.878E-03
   0.584E+02 -.547E+02 -.262E+02   -.586E+02 0.547E+02 0.269E+02   0.195E+00 -.306E-02 -.697E+00   0.170E-02 -.180E-02 0.268E-02
   -.317E+01 -.578E+02 -.677E+02   0.270E+01 0.574E+02 0.678E+02   0.464E+00 0.347E+00 -.830E-01   0.375E-02 0.199E-02 0.291E-02
   0.114E+03 -.677E+02 -.117E+03   -.113E+03 0.682E+02 0.117E+03   -.336E+00 -.459E+00 0.297E+00   0.414E-02 -.403E-02 0.304E-02
   0.124E+03 -.450E+02 0.158E+03   -.124E+03 0.462E+02 -.158E+03   0.643E+00 -.114E+01 0.795E+00   0.442E-02 0.297E-02 -.123E-02
   -.237E+02 -.511E+02 0.743E+02   0.241E+02 0.509E+02 -.745E+02   -.358E+00 0.189E+00 0.228E+00   0.475E-02 0.203E-02 -.217E-02
   0.303E+02 -.245E+02 -.957E+01   -.304E+02 0.247E+02 0.916E+01   0.875E-01 -.224E+00 0.414E+00   0.306E-02 0.305E-02 -.441E-02
   0.743E+02 0.594E+02 -.479E+02   -.743E+02 -.593E+02 0.482E+02   -.453E-01 -.520E-01 -.320E+00   -.154E-02 -.294E-02 -.235E-02
   -.231E+02 -.208E+02 -.103E+03   0.229E+02 0.208E+02 0.103E+03   0.230E+00 -.731E-01 -.178E+00   -.335E-02 -.283E-02 0.120E-02
   0.976E+02 0.112E+03 0.134E+03   -.973E+02 -.111E+03 -.134E+03   -.325E+00 -.319E+00 -.228E-01   0.843E-03 -.109E-02 0.284E-02
   -.157E+02 0.352E+02 0.948E+02   0.159E+02 -.350E+02 -.952E+02   -.170E+00 -.173E+00 0.375E+00   0.613E-02 0.434E-02 -.253E-02
   0.463E+02 0.767E+02 -.355E+02   -.458E+02 -.764E+02 0.352E+02   -.477E+00 -.220E+00 0.345E+00   -.315E-03 -.187E-02 -.766E-02
   0.350E+02 0.348E+02 -.867E+02   -.349E+02 -.352E+02 0.867E+02   -.106E+00 0.362E+00 -.468E-01   -.208E-02 -.297E-02 -.484E-02
   0.831E+02 0.480E+02 -.790E+02   -.834E+02 -.483E+02 0.790E+02   0.303E+00 0.216E+00 -.197E-01   0.108E-02 0.147E-02 0.222E-02
   -.395E+01 0.518E+02 -.169E+02   0.409E+01 -.514E+02 0.168E+02   -.138E+00 -.373E+00 0.126E+00   -.467E-02 -.397E-03 0.236E-02
   0.342E+02 0.778E+02 0.507E+02   -.340E+02 -.782E+02 -.507E+02   -.179E+00 0.398E+00 0.386E-01   0.246E-02 0.456E-02 0.515E-02
   -.443E+02 0.152E+03 0.740E+02   0.443E+02 -.152E+03 -.742E+02   -.655E-02 0.624E-01 0.162E+00   -.121E-02 0.982E-03 0.602E-02
   0.345E+02 0.427E+02 0.299E+02   -.345E+02 -.428E+02 -.301E+02   -.529E-01 0.794E-01 0.267E+00   0.724E-03 -.333E-02 -.849E-03
   -.275E+02 0.529E+02 0.328E+02   0.279E+02 -.526E+02 -.329E+02   -.361E+00 -.296E+00 0.468E-01   0.112E-02 -.218E-02 -.387E-02
   0.238E+02 0.164E+02 0.186E+01   -.235E+02 -.165E+02 -.190E+01   -.277E+00 0.156E+00 0.471E-01   -.284E-03 -.378E-02 -.635E-02
   0.589E+02 0.250E+02 -.647E+02   -.591E+02 -.251E+02 0.648E+02   0.128E+00 0.942E-01 -.916E-01   -.920E-04 -.555E-03 -.202E-02
   0.120E+02 -.501E+02 -.469E+02   -.120E+02 0.500E+02 0.468E+02   0.163E-01 0.108E+00 0.103E+00   0.469E-02 0.333E-02 0.550E-02
   0.454E+02 0.306E+02 0.231E+02   -.459E+02 -.309E+02 -.232E+02   0.567E+00 0.274E+00 0.922E-01   0.315E-02 0.183E-02 0.498E-02
   -.447E+02 -.120E+03 -.215E+02   0.450E+02 0.120E+03 0.218E+02   -.318E+00 -.335E+00 -.288E+00   0.791E-02 0.212E-02 0.172E-02
   0.197E+02 -.498E+02 0.230E+02   -.202E+02 0.499E+02 -.229E+02   0.535E+00 -.991E-01 -.100E+00   0.963E-03 -.229E-02 0.151E-02
   0.376E+02 -.135E+03 0.270E+02   -.376E+02 0.136E+03 -.271E+02   0.125E-01 -.270E+00 0.723E-01   0.526E-02 0.107E-02 -.402E-02
   -.861E+01 -.414E+02 0.190E+02   0.887E+01 0.414E+02 -.191E+02   -.259E+00 -.146E-01 0.103E+00   -.839E-03 -.452E-02 -.435E-02
   -.658E+02 -.737E+02 0.357E+02   0.663E+02 0.739E+02 -.359E+02   -.519E+00 -.195E+00 0.244E+00   0.359E-02 0.239E-02 -.311E-02
   -.481E+02 0.180E+02 0.506E+02   0.481E+02 -.179E+02 -.507E+02   -.617E-01 -.167E+00 0.120E+00   0.230E-02 0.629E-03 0.116E-03
   -.288E+02 0.447E+02 -.959E+01   0.291E+02 -.447E+02 0.965E+01   -.297E+00 0.556E-01 -.644E-01   0.209E-03 -.364E-02 0.348E-02
   -.637E+02 0.762E+02 -.936E+02   0.632E+02 -.760E+02 0.926E+02   0.472E+00 -.256E+00 0.997E+00   0.205E-02 -.159E-02 0.541E-02
   -.487E+01 0.273E+02 0.775E+02   0.372E+01 -.262E+02 -.766E+02   0.115E+01 -.104E+01 -.866E+00   0.142E-02 -.416E-03 -.185E-02
   0.462E+02 0.557E+02 0.114E+02   -.463E+02 -.555E+02 -.114E+02   0.167E+00 -.185E+00 0.400E-01   -.519E-02 -.122E-02 -.323E-02
   -.538E+02 0.506E+02 -.372E+02   0.548E+02 -.516E+02 0.383E+02   -.950E+00 0.105E+01 -.108E+01   0.136E-02 0.195E-02 -.328E-02
   0.175E+02 0.107E+03 -.377E+01   -.175E+02 -.108E+03 0.389E+01   0.295E-01 0.410E+00 -.116E+00   -.351E-02 -.927E-03 -.214E-02
   0.699E+02 0.274E+02 -.215E+02   -.702E+02 -.274E+02 0.217E+02   0.351E+00 0.576E-01 -.124E+00   -.628E-03 -.207E-02 -.420E-02
   0.239E+02 0.248E+02 -.269E+02   -.240E+02 -.246E+02 0.268E+02   0.117E+00 -.110E+00 0.145E+00   0.339E-02 -.261E-02 0.563E-03
   0.105E+03 -.314E+02 -.487E+02   -.105E+03 0.319E+02 0.483E+02   -.111E+00 -.501E+00 0.419E+00   0.186E-02 -.674E-02 0.278E-02
   0.868E+02 0.225E+02 0.119E+02   -.873E+02 -.224E+02 -.119E+02   0.441E+00 -.147E+00 -.405E-04   0.385E-02 -.205E-02 0.489E-02
   0.187E+03 -.169E+01 0.393E+02   -.187E+03 0.258E+01 -.389E+02   0.613E+00 -.882E+00 -.371E+00   -.321E-03 -.281E-02 0.457E-02
   0.513E+02 0.326E+02 0.280E+02   -.514E+02 -.324E+02 -.278E+02   0.140E+00 -.206E+00 -.205E+00   -.314E-02 0.845E-03 -.598E-03
   0.536E+02 0.419E+02 0.302E+02   -.535E+02 -.418E+02 -.303E+02   -.124E+00 -.948E-01 0.150E+00   -.377E-02 0.129E-02 -.368E-02
   0.267E+02 0.256E+02 -.108E+02   -.270E+02 -.253E+02 0.107E+02   0.329E+00 -.266E+00 0.166E+00   -.193E-02 -.253E-03 -.474E-02
   0.403E+02 0.515E+02 -.357E+02   -.405E+02 -.516E+02 0.358E+02   0.155E+00 0.101E+00 -.105E+00   -.230E-03 -.191E-02 -.501E-02
   -.128E+02 -.289E+00 -.361E+02   0.128E+02 0.138E+00 0.356E+02   0.237E-01 0.150E+00 0.464E+00   -.301E-04 0.877E-03 0.407E-03
   0.755E+02 0.580E+02 -.468E+02   -.756E+02 -.585E+02 0.466E+02   0.588E-01 0.576E+00 0.186E+00   0.225E-02 0.311E-02 0.299E-02
   0.451E+01 -.671E+02 0.242E+02   -.440E+01 0.668E+02 -.241E+02   -.102E+00 0.299E+00 -.110E+00   -.938E-03 0.279E-02 0.704E-02
   0.933E+02 0.100E+03 0.642E+02   -.933E+02 -.101E+03 -.641E+02   -.452E-02 0.524E+00 -.760E-01   0.831E-03 0.110E-02 0.701E-02
   -.274E+02 -.317E+02 0.229E+01   0.277E+02 0.320E+02 -.227E+01   -.304E+00 -.268E+00 -.101E-01   0.141E-02 0.425E-03 -.133E-02
   0.227E+02 0.234E+02 0.231E+02   -.224E+02 -.229E+02 -.233E+02   -.278E+00 -.490E+00 0.241E+00   -.207E-02 -.310E-02 -.511E-02
   -.281E+02 -.638E+02 -.369E+02   0.281E+02 0.636E+02 0.366E+02   -.224E-01 0.198E+00 0.272E+00   -.193E-02 0.544E-02 0.307E-02
   -.678E+02 -.101E+03 -.900E+02   0.672E+02 0.100E+03 0.890E+02   0.577E+00 0.111E+01 0.977E+00   -.866E-03 0.573E-02 0.571E-02
[...]
   -.202E+02 -.234E+02 -.825E+02   0.200E+02 0.234E+02 0.827E+02   0.215E+00 -.686E-01 -.172E+00   -.279E-02 -.341E-02 -.550E-02
   -.197E+02 0.536E+01 -.607E+02   0.194E+02 -.540E+01 0.607E+02   0.287E+00 0.412E-01 -.684E-01   -.266E-02 -.227E-02 -.426E-02
   0.159E+02 0.104E+02 -.265E+02   -.162E+02 -.108E+02 0.266E+02   0.275E+00 0.347E+00 -.603E-01   0.168E-03 0.219E-02 0.211E-02
   -.489E+02 0.200E+02 0.470E+02   0.491E+02 -.200E+02 -.470E+02   -.182E+00 -.360E-01 -.545E-01   0.294E-03 -.133E-02 0.423E-02
   -.488E+02 -.684E+02 -.254E+02   0.486E+02 0.684E+02 0.254E+02   0.245E+00 0.177E-01 -.157E-01   0.344E-03 -.275E-03 0.267E-02
   -.109E+02 -.249E+02 0.213E+02   0.115E+02 0.248E+02 -.212E+02   -.596E+00 0.173E+00 -.942E-01   -.150E-02 -.340E-02 0.326E-02
   -.488E+02 -.916E+02 0.540E+02   0.486E+02 0.918E+02 -.537E+02   0.168E+00 -.167E+00 -.313E+00   -.157E-02 -.468E-02 -.186E-02
   0.209E+02 -.571E+02 -.982E+01   -.213E+02 0.573E+02 0.994E+01   0.325E+00 -.203E+00 -.120E+00   -.248E-02 -.456E-02 -.323E-02
   0.858E+01 -.348E+02 -.573E+01   -.868E+01 0.349E+02 0.551E+01   0.107E+00 -.939E-01 0.217E+00   -.171E-02 -.249E-02 -.269E-02
   0.523E+02 0.125E+03 0.278E+01   -.524E+02 -.125E+03 -.281E+01   0.743E-01 0.105E+00 0.237E-01   -.874E-03 -.646E-02 0.218E-02
   -.243E+02 -.831E+02 0.124E+02   0.243E+02 0.831E+02 -.123E+02   -.667E-01 0.944E-01 -.960E-01   0.379E-02 0.158E-03 -.746E-02
   0.907E+02 -.142E+03 -.964E+02   -.899E+02 0.141E+03 0.956E+02   -.761E+00 0.782E+00 0.780E+00   -.421E-02 0.436E-02 0.569E-02
   -.352E+02 0.294E+02 0.590E+02   0.351E+02 -.293E+02 -.590E+02   0.112E+00 -.121E+00 -.175E-02   0.320E-02 0.970E-03 0.325E-02
   -.346E+02 -.652E+02 0.236E+02   0.347E+02 0.650E+02 -.233E+02   -.142E+00 0.208E+00 -.338E+00   0.171E-02 0.130E-02 -.320E-02
   -.248E+00 -.105E+01 0.591E+00   -.300E-11 -.114E-12 -.497E-13   0.249E+00 0.105E+01 -.586E+00   0.170E-02 -.183E-02 -.561E-02

 POSITION                                       TOTAL-FORCE (eV/Angst)
      2.96865      9.01049      0.08069         0.000131     -0.000197     -0.000133
      2.98680      9.03805      6.03864        -0.000563     -0.000634      0.000309
      9.04745      6.02934      9.05738         0.000148      0.000182     -0.000117
     12.06600     12.01111      6.04849         0.000348     -0.000925     -0.000429
      0.01902      3.04118      0.01240        -0.000272     -0.000140      0.000272
      1.59743      4.58583      4.49065        -0.000415     -0.000542      0.000116
      7.57547      1.56909      1.51871        -0.000562     -0.000635      0.000760
     10.58478      7.59178      1.50982         0.000135      0.000604      0.000216
      0.00505     12.05203      0.00706         0.001081     -0.000521      0.000060
      1.55227      1.47447      1.53607         0.000553     -0.000173      0.000124
      0.02306     12.04591      3.01179         0.000526     -0.000647      0.000317
      1.63075      1.39593      4.40404         0.000196     -0.000101     -0.000603
      1.63609      1.40996      7.67255         0.000408     -0.000939      0.000237
     12.05010     12.01461      9.07121         0.000301     -0.000798      0.000077
      1.53646      1.45570     10.56917         0.000732     -0.000405      0.000261
      1.56826      4.60288      1.56764         0.000219     -0.000296      0.000301
     12.07241      2.99795      2.93566         0.000549     -0.001354      0.000474
      1.58403      4.56317      7.64654        -0.000638     -0.001185     -0.000175
     12.06589      3.00027      9.16477         0.000223      0.000314      0.000039
      1.53087      4.54841     10.56462         0.000748      0.000181      0.000070
      0.03902      6.02870     12.05181        -0.000543     -0.000014     -0.000030
      1.56112      7.61491      1.50165        -0.000070     -0.000381     -0.000064
      0.02513      6.08116      3.04561        -0.000188     -0.000138     -0.000099
      1.54093      7.58660      4.58792        -0.001653     -0.001073     -0.000887
     12.02191      6.08218      6.09992         0.000147     -0.000609      0.000211
      1.47617      7.52048      7.55281        -0.000910     -0.000225     -0.000064
     12.07233      6.02723      9.08948        -0.000365      0.000169      0.000363
      1.48001      7.55212     10.61200         0.000045      0.000124      0.000306
      0.01686      9.08950     12.04047         0.000140      0.000053      0.000148
      1.54884     10.53806      1.51188         0.000107     -0.000842      0.000041
      0.08376      9.07934      3.05223        -0.000670     -0.000248      0.000135
      1.46995     10.47224      4.53710        -0.000093     -0.000824     -0.000232
     12.04316      9.02123      6.05216        -0.000311     -0.000509      0.000303
      1.53439     10.44151      7.52493        -0.000035      0.000294      0.000864
     12.03462      9.02166      9.07096         0.000139      0.000016      0.000071
      1.45973     10.52471     10.59740         0.000274     -0.000609      0.000211
      2.94328      0.10802      0.09038         0.000638     -0.000513      0.000353
      4.56569      1.54136      1.49246         0.000115     -0.000094      0.000747
      3.08554     11.99504      3.04910         0.000704     -0.000455      0.000492
      3.11346     11.91090      5.93271         0.000822     -0.001458     -0.000969
      4.55407      1.48702      7.52726         0.000276     -0.000017      0.000559
      2.92793      0.04208      8.94050         0.001015     -0.000192      0.000517
      4.54703      1.56978     10.55676         0.000648     -0.000271     -0.000322
      3.04666      3.04325      0.00958         0.000777      0.000201     -0.000434
      4.56562      4.55617      1.52747        -0.000680      0.000208     -0.000170
      3.07285      3.00294      2.95614        -0.000531     -0.000145      0.000017
      4.56044      4.58460      4.53983        -0.000871     -0.000007     -0.000556
      3.09762      2.97272      6.08868        -0.000254      0.000111      0.000403
      4.55780      4.51395      7.53485        -0.000047      0.000176     -0.000358
      3.04311      3.02330      9.08892         0.000255      0.000251      0.000417
      4.55309      4.50131     10.57389        -0.000010      0.001039     -0.000404
      3.02655      6.01189      0.03350         0.000639      0.000002     -0.000295
      4.50863      7.60871      1.52047        -0.000611     -0.000128     -0.000205
      3.09163      6.15489      2.99429        -0.000416     -0.000827     -0.000812
      4.47763      7.53688      4.58046        -0.000038     -0.000286     -0.000823
      3.06062      6.06966      6.10095        -0.000385      0.000003      0.000207
      4.48059      7.54377      7.50029         0.000539     -0.000226     -0.000189
      3.00536      5.98945      9.07516         0.000202      0.000311     -0.000625
      4.50342     10.60082      1.42965         0.000205      0.000067      0.000126
      3.10041      9.18140      3.13294        -0.000552     -0.000635     -0.000911
[...]
     10.52213      7.52328      7.57703        -0.000724      0.000454     -0.000469
     10.54915      7.51695     10.55276         0.000161      0.000750      0.000061
      9.02629      9.09803     12.02250         0.000327      0.000922     -0.000291
     10.60169     10.55479      1.50621         0.000656     -0.000756      0.000107
      9.00871      9.07990      3.03527         0.000035     -0.000455     -0.000029
     10.53987     10.50103      4.48907        -0.000345     -0.001059      0.000422
      9.01856      9.04011      6.03039        -0.000311     -0.000437     -0.000005
     10.51382     10.48161      7.55309        -0.000253     -0.000740     -0.000168
      9.05856      9.04332      9.03157         0.000148      0.000419      0.000307
     10.57665     10.53249     10.56902         0.000319      0.000502      0.000015
      4.56547      1.56653      4.52357        -0.000594     -0.000719     -0.001707
      4.52073      7.52091     10.57349        -0.000315      0.000107     -0.000180
      5.96906      9.15957      3.07204         0.000238     -0.000769     -0.000498
     12.05013      2.93258      6.10849         0.000256     -0.001100      0.000373
      4.49374     10.59372     10.52621        -0.000285      0.000656      0.000229
    total drift:                                0.001847     -0.003822     -0.001071

  FREE ENERGIE OF THE ION-ELECTRON SYSTEM (eV)
  free  energy   TOTEN  =     -1139.41265286 eV

  energy  without entropy=    -1139.31955211  energy(sigma->0) =    -1139.38161927