 vasp.6.4.2 20Jul23 (build Sep 20 2024 16:56:05) complex
 executed on              LinuxNV date 2024.12.10  14:20:31
 OpenACC runtime initialized ...    4 GPUs detected

 INCAR:
   ENCUT = 520.000000
   POTIM = 0.200000
   SIGMA = 0.200000
   EDIFF = 1.00e-06
   EDIFFG = -1.00e-02
   ALGO = Normal
   GGA = PE
   PREC = Accurate
   IBRION = 2
   ISIF = 2
   ISMEAR = 1
   LORBIT = 11
   NELM = 100
   NSW = -1
   NSIM = 32
   LCHARG = .TRUE.
   LWAVE = .FALSE.
   LREAL = .FALSE.

 POTCAR:    PAW_PBE V_pv 07Sep2000
 POTCAR:    PAW_PBE Cr_pv 02Aug2007
 POTCAR:    PAW_PBE Ti_pv 07Sep2000
 POTCAR:    PAW_PBE V_pv 07Sep2000
   VRHFIN =V: p6 d4 s1

   TITEL  = PAW_PBE V_pv 07Sep2000
   POMASS =   50.941; ZVAL   =   11.000    mass and valenz
   ENMAX  =  263.673; ENMIN  =  197.755 eV

   TITEL  = PAW_PBE Cr_pv 02Aug2007
   POMASS =   51.996; ZVAL   =   12.000    mass and valenz
   ENMAX  =  265.681; ENMIN  =  199.261 eV

   TITEL  = PAW_PBE Ti_pv 07Sep2000
   POMASS =   47.880; ZVAL   =   10.000    mass and valenz
   ENMAX  =  222.335; ENMIN  =  166.751 eV

  PAW_PBE V_pv 07Sep2000                :
  PAW_PBE Cr_pv 02Aug2007               :
  PAW_PBE Ti_pv 07Sep2000               :

 POSCAR: V  Cr Ti
  positions in cartesian coordinates
 exchange correlation table for  LEXCH =        8
   RHO(1)=    0.500       N(1)  =     2000
   RHO(2)=  100.500       N(2)  =     4000

 ion  position               nearest neighbor table
   1  0.004  0.996  0.002-   2 2.55   5 2.59 114 2.59  95 2.61  22 2.63  28 2.63 115 2.65  23 2.79
                            21 2.88 118 2.98
   2  0.996  0.001  0.196- 110 2.54   1 2.55  96 2.55   6 2.55   3 2.57  29 2.58  24 2.68  18 2.77
                            23 2.81
   3  0.999  0.996  0.393-   2 2.57 111 2.59  97 2.61   7 2.61  19 2.62   4 2.63  24 2.63  30 2.64

   4  0.004  1.000  0.598-  25 2.54  98 2.58   8 2.58  20 2.58  31 2.58 112 2.59   3 2.63   5 2.68
                           116 3.01
   5  0.000  0.004  0.804- 118 2.49 116 2.53   1 2.59  27 2.59 113 2.61  26 2.62  21 2.63   4 2.68
                            98 2.88 114 2.91 115 2.93
   6  0.005  0.201  0.198- 115 2.53   2 2.55   9 2.56  28 2.57  95 2.58  34 2.59  99 2.60   7 2.61
                           119 2.93
   7  0.003  0.200  0.398- 100 2.57  29 2.59  35 2.59  10 2.60   6 2.61   3 2.61  96 2.61   8 2.63

   8  0.006  0.200  0.601-  30 2.52   4 2.58  36 2.59  97 2.59  11 2.61 116 2.61   7 2.63 122 2.68

   9  0.001  0.396  0.197- 119 2.52 117 2.53   6 2.56  33 2.58  14 2.59  10 2.61  39 2.62 102 2.64
                           101 2.86 115 2.95
  10  0.005  0.402  0.401-  34 2.57  40 2.58  15 2.59  11 2.60 103 2.60   7 2.60   9 2.61  99 2.63

  11  0.003  0.399  0.599-  35 2.57 100 2.59  10 2.60   8 2.61  41 2.61 104 2.62  16 2.65  12 2.69
                           122 3.01
  12  0.009  0.400  0.809-  36 2.53  37 2.55 116 2.57 117 2.57  17 2.64 124 2.68  11 2.69 122 2.70
                            32 2.86 123 2.98
  13  0.004  0.608  0.004-  43 2.51  37 2.60 124 2.63  14 2.64  17 2.64 105 2.68 117 2.70  18 2.82
                           109 2.91  42 2.91
  14  0.998  0.596  0.201- 101 2.52  44 2.55  18 2.56  15 2.58   9 2.59  38 2.61  13 2.64 106 2.64
                           117 2.97
  15  0.003  0.601  0.402-  16 2.57  14 2.58  19 2.58  45 2.59  10 2.59  39 2.60 102 2.61 107 2.62

[...]

  17  0.002  0.596  0.796-  41 2.54 104 2.56  42 2.58  16 2.58 109 2.59  12 2.64  13 2.64  21 2.64
                           124 2.94
  18  0.972  0.775  0.178- 105 2.40  24 2.43 111 2.53  14 2.56  19 2.68   2 2.77 110 2.81  13 2.82
                            43 2.83 106 2.87
  19  0.996  0.796  0.398-  15 2.58 112 2.58  20 2.59 106 2.60  25 2.61  44 2.61   3 2.62  18 2.68

[...]

  21  0.001  0.802  0.807- 108 2.58  46 2.61  22 2.62 114 2.62   5 2.63  17 2.64  20 2.67 109 2.76
                            42 2.86   1 2.88
  22  0.208  0.009  0.995-  23 2.41  26 2.47  27 2.53  47 2.56  21 2.62  53 2.62   1 2.63  42 2.64
                            52 2.89
  23  0.206  0.004  0.178-  22 2.41  24 2.46  28 2.53  48 2.56  54 2.67  43 2.77  42 2.79   1 2.79
                             2 2.81  53 2.90
  24  0.170  0.969  0.341-  18 2.43  23 2.46   3 2.63  49 2.63  44 2.64  29 2.65  43 2.66   2 2.68

[...]

  49  0.393  0.996  0.388-  43 2.52  79 2.53  48 2.61  74 2.62  24 2.63  54 2.64  69 2.66  50 2.68
                           120 3.04
  50  0.386  0.993  0.591-  25 2.49  44 2.54  70 2.58  51 2.61  55 2.63 120 2.65  49 2.68 121 2.71
                            45 2.89
  51  0.401  0.001  0.799-  47 2.57  45 2.59  71 2.60  50 2.61  76 2.61  56 2.62  26 2.63  75 2.68
                           121 3.01
  52  0.402  0.203  0.998-  56 2.54  53 2.57  57 2.59  81 2.60  26 2.63  76 2.63  47 2.64  27 2.65
                            22 2.89  80 2.89
  53  0.408  0.209  0.200-  58 2.56  77 2.57  52 2.57  54 2.58  82 2.59  22 2.62  28 2.62  48 2.66
                            81 2.89  23 2.90
  54  0.402  0.205  0.395-  59 2.57  53 2.58  29 2.60  78 2.61  83 2.64  49 2.64  55 2.65  23 2.67
                            79 2.74
  55  0.390  0.197  0.592-  79 2.47  30 2.53  60 2.58  50 2.63  54 2.65  56 2.66  84 2.68
  56  0.394  0.200  0.799-  52 2.54  80 2.58  31 2.59  25 2.60  61 2.60  51 2.62  55 2.66 121 2.66

[...]

  78  0.603  0.203  0.398-  79 2.51  77 2.57 104 2.60  48 2.60  54 2.61  82 2.62 100 2.64  74 2.65
                           122 2.99
  79  0.578  0.201  0.580-  55 2.47  83 2.49  78 2.51  49 2.53 121 2.72 120 2.74  54 2.74 122 2.81
                           124 2.83
  80  0.596  0.395  0.998-  56 2.58  81 2.59  76 2.60  57 2.61 106 2.61  84 2.64  85 2.66 101 2.73
                            52 2.89 105 2.90 121 2.98
  81  0.601  0.402  0.201-  86 2.58  80 2.59  82 2.59  58 2.59  77 2.59  52 2.60 102 2.60 107 2.62
                           106 2.88  53 2.89
  82  0.605  0.407  0.402-  87 2.58  81 2.59  53 2.59  83 2.60 108 2.60  59 2.62  78 2.62 103 2.63

  83  0.602  0.407  0.602-  79 2.49  88 2.54  84 2.60  82 2.60  60 2.60 104 2.63  54 2.64 109 2.84
                           124 3.00
  84  0.594  0.406  0.798- 105 2.49  61 2.52  89 2.53  83 2.60  80 2.64 121 2.67  55 2.68 124 2.70

[...]

  91  0.600  0.800  0.199- 111 2.51  68 2.57  86 2.60  62 2.60  90 2.61  73 2.61  92 2.64  97 2.64
                            74 2.91
  92  0.601  0.802  0.403-  87 2.57  74 2.59 112 2.59  93 2.60  69 2.61  63 2.63  91 2.64  98 2.67
                           120 3.00
  93  0.603  0.802  0.604-  88 2.58  94 2.59  92 2.60  70 2.60 113 2.62 118 2.63  64 2.63 120 2.67
                           114 2.88
  94  0.601  0.800  0.802-  89 2.54  75 2.55 114 2.55  90 2.55  93 2.59  71 2.59  65 2.61  95 2.62
                           118 3.01
  95  0.805  0.003  1.000- 118 2.50 119 2.53   6 2.58  96 2.61   1 2.61  94 2.62 110 2.63  72 2.64
                            75 2.89 114 2.92 115 2.94
  96  0.799  1.000  0.198-   2 2.55  73 2.56  90 2.59  99 2.61 111 2.61  95 2.61   7 2.61  97 2.63

[...]

 109  0.822  0.626  0.819-  17 2.59 114 2.60 105 2.64 108 2.65  89 2.66 124 2.69  21 2.76 110 2.79
                            83 2.84  13 2.91
 110  0.806  0.801  1.000-   2 2.54  89 2.56  95 2.63 114 2.63  90 2.66 111 2.67 105 2.70 109 2.79
                            18 2.81
 111  0.793  0.798  0.199-  91 2.51  18 2.53  85 2.57 112 2.58   3 2.59  96 2.61 106 2.66 110 2.67

 112  0.801  0.802  0.402- 113 2.56  19 2.58 111 2.58   4 2.59  97 2.59  92 2.59 107 2.61  86 2.63

 113  0.803  0.802  0.600-  98 2.53 114 2.56 112 2.56 108 2.57  20 2.58  87 2.60   5 2.61  93 2.62
                           118 2.99
 114  0.799  0.810  0.798- 118 2.40  94 2.55 113 2.56   1 2.59 109 2.60  88 2.62  21 2.62 110 2.63
                            93 2.88   5 2.91  95 2.92
 115  0.004  0.200  0.003-   6 2.53  27 2.53  33 2.56 118 2.57 117 2.59 119 2.60 116 2.61   1 2.65
                           123 2.79   5 2.93  95 2.94  32 2.95   9 2.95  28 2.96
 116  0.008  0.200  0.803-  31 2.43  32 2.51 123 2.53   5 2.53  98 2.55  12 2.57 115 2.61   8 2.61
                            27 2.92  36 2.99   4 3.01 118 3.03 117 3.04 122 3.13
 117  0.009  0.403  0.007-  38 2.43  32 2.50 123 2.51   9 2.53 101 2.56  12 2.57 115 2.59  13 2.70
                            33 2.93  14 2.97  37 3.00 119 3.04 116 3.04 124 3.14
 118  0.808  1.000  0.807- 114 2.40   5 2.49  95 2.50 123 2.52 115 2.57  75 2.58  98 2.59  93 2.63
                             1 2.98 113 2.99  94 3.01 119 3.02 116 3.03
 119  0.805  0.200  0.007-  99 2.46   9 2.52 101 2.53  95 2.53 123 2.53  75 2.57  76 2.59 115 2.60
                             6 2.93  72 2.99 102 3.00 118 3.02 117 3.04 121 3.16
 120  0.596  0.003  0.597-  50 2.65  69 2.66  93 2.67  74 2.68  75 2.70  79 2.74  98 2.75 123 2.80
                           121 2.96  70 2.98 122 2.99  92 3.00  49 3.04
 121  0.598  0.201  0.796-  76 2.66  56 2.66  84 2.67 101 2.69  50 2.71  75 2.72  79 2.72 123 2.80
                           120 2.96  80 2.98  51 3.01 124 3.04 119 3.16
 122  0.798  0.200  0.597- 100 2.65  98 2.68   8 2.68  74 2.68 104 2.69  12 2.70 123 2.79  79 2.81
                            97 2.97  78 2.99 120 2.99  11 3.01 124 3.04 116 3.13
 123  0.820  0.201  0.818- 117 2.51 118 2.52 116 2.53 119 2.53 122 2.79 115 2.79 121 2.80 120 2.80
                           124 2.83 101 2.96  12 2.98  98 2.99  75 3.00
 124  0.803  0.407  0.800-  13 2.63  12 2.68 104 2.68 109 2.69  84 2.70 101 2.72  79 2.83 123 2.83
                           105 2.93  17 2.94  83 3.00 121 3.04 122 3.04 117 3.14

  LATTYP: Found a base centered monoclinic cell.
 ALAT       =    15.0482117230
 B/A-ratio  =     1.4081981607
 C/A-ratio  =     1.6569313785
 COS(beta)  =    -0.9052205732

  Lattice vectors:

 A1 = (   4.3071057600,   6.1309426610, -10.6177469370)
 A2 = ( -12.9951470410,   0.0135483230,  -0.0223585750)
 A3 = (  13.0316404910,  -0.0404660660,  21.2572762500)

Analysis of symmetry for initial positions (statically):
 Subroutine PRICEL returns:
 Original cell was already a primitive cell.

 Routine SETGRP: Setting up the symmetry group for a
 base centered monoclinic supercell.

 Subroutine GETGRP returns: Found  1 space group operations
 (whereof  1 operations were pure point group operations)
 out of a pool of  4 trial point group operations.

The static configuration has the point symmetry C_1 .

Analysis of symmetry for dynamics (positions and initial velocities):
 Subroutine PRICEL returns:
 Original cell was already a primitive cell.

 Routine SETGRP: Setting up the symmetry group for a
 base centered monoclinic supercell.

 Subroutine GETGRP returns: Found  1 space group operations
 (whereof  1 operations were pure point group operations)
 out of a pool of  4 trial point group operations.

The dynamic configuration has the point symmetry C_1 .

 Subroutine INISYM returns: Found  1 space group operations
 (whereof  1 operations are pure point group operations),
 and found     1 'primitive' translations

                                     Primitive cell

  volume of cell :    1689.3617

  direct lattice vectors                    reciprocal lattice vectors
[...]
   -.279E+02 0.481E+01 -.738E+02   0.279E+02 -.468E+01 0.762E+02   -.439E-01 -.139E+00 -.665E+00   -.612E-03 0.194E-02 0.441E-02
   -.719E+02 -.709E+02 0.746E+02   0.715E+02 0.708E+02 -.746E+02   0.335E+00 0.729E-01 -.821E-01   -.227E-02 0.335E-03 0.208E-02
   -.418E+02 0.591E+01 0.366E+02   0.424E+02 -.499E+01 -.372E+02   -.672E+00 -.931E+00 0.658E+00   -.418E-04 0.266E-02 -.115E-03
   -.887E+02 0.425E+02 -.224E+01   0.890E+02 -.420E+02 0.232E+01   -.250E+00 -.488E+00 -.648E-01   0.569E-02 0.210E-02 -.947E-03
   -.376E+02 0.109E+03 -.396E+02   0.380E+02 -.109E+03 0.400E+02   -.265E+00 -.761E-01 -.438E+00   0.376E-02 0.195E-02 0.238E-02
   -.585E+02 0.101E+03 -.368E+02   0.581E+02 -.101E+03 0.373E+02   0.388E+00 -.497E+00 -.610E+00   -.155E-02 0.166E-02 0.146E-02
   -.803E+02 0.475E+02 0.444E+02   0.798E+02 -.474E+02 -.439E+02   0.637E+00 -.118E+00 -.666E+00   -.372E-02 -.200E-03 0.142E-02
   -.109E+03 -.750E+01 0.561E+02   0.110E+03 0.771E+01 -.562E+02   -.492E+00 -.214E+00 0.112E+00   -.235E-02 0.907E-03 -.255E-03
   -.539E+02 -.939E+02 -.874E+01   0.541E+02 0.946E+02 0.872E+01   -.167E+00 -.749E+00 0.343E-01   0.652E-02 -.814E-03 -.245E-02
   -.285E+02 -.348E+02 -.777E+02   0.285E+02 0.348E+02 0.778E+02   -.237E-01 -.126E-01 -.731E-01   0.449E-02 0.118E-02 0.367E-02
   -.111E+02 0.226E+02 -.443E+02   0.112E+02 -.226E+02 0.443E+02   -.168E+00 0.494E-01 0.222E-01   0.271E-03 -.969E-03 0.107E-02
   -.541E+01 0.200E+02 -.103E+02   0.532E+01 -.198E+02 0.105E+02   0.957E-01 -.127E+00 -.224E+00   -.227E-02 -.221E-02 0.458E-03
   -.174E+01 -.299E+02 0.321E+02   0.211E+01 0.300E+02 -.321E+02   -.344E+00 -.950E-01 -.441E-01   0.750E-03 -.274E-02 -.224E-02
   0.652E+02 -.738E+02 0.734E+01   -.651E+02 0.740E+02 -.747E+01   -.132E+00 -.156E+00 0.140E+00   0.939E-02 -.223E-02 0.735E-03
   0.155E+02 -.122E+03 -.546E+02   -.154E+02 0.122E+03 0.552E+02   -.110E+00 -.304E+00 -.609E+00   0.608E-02 -.136E-02 0.582E-02
   0.857E+01 -.568E+02 -.313E+02   -.864E+01 0.568E+02 0.312E+02   0.614E-01 -.267E-01 0.581E-01   0.147E-02 0.643E-03 0.201E-02
   0.155E+02 -.124E+02 -.197E+02   -.156E+02 0.124E+02 0.197E+02   0.719E-01 0.891E-02 -.222E-03   -.304E-03 -.106E-02 -.274E-03
   0.471E+02 -.569E+00 0.710E+00   -.466E+02 0.435E+00 -.107E+01   -.469E+00 0.129E+00 0.346E+00   0.386E-02 -.163E-02 -.330E-02
   0.203E+03 0.237E+02 -.268E+02   -.201E+03 -.236E+02 0.268E+02   -.138E+01 -.211E+00 0.172E-04   0.636E-02 0.568E-02 0.126E-02
   0.105E+03 -.830E+02 0.641E+02   -.105E+03 0.828E+02 -.635E+02   -.203E-01 0.318E+00 -.589E+00   0.627E-02 0.126E-02 0.777E-02
   0.882E+01 -.100E+03 -.126E+02   -.856E+01 0.996E+02 0.131E+02   -.218E+00 0.538E+00 -.521E+00   0.201E-02 -.190E-02 0.449E-02
   -.161E+02 -.430E+02 -.137E+01   0.161E+02 0.430E+02 0.138E+01   -.831E-01 -.125E-01 -.117E-02   0.819E-04 0.161E-03 0.563E-03
   0.351E+02 0.910E+01 -.130E+02   -.349E+02 -.870E+01 0.129E+02   -.169E+00 -.385E+00 0.139E+00   0.326E-02 0.286E-02 -.192E-02
   0.203E+02 0.130E+02 0.313E+01   -.198E+02 -.125E+02 -.316E+01   -.458E+00 -.494E+00 0.480E-01   0.164E-02 0.318E-02 0.308E-02
   0.572E+02 0.478E+02 -.283E+02   -.572E+02 -.479E+02 0.284E+02   -.195E+00 0.110E+00 -.129E+00   0.473E-02 0.434E-02 0.362E-02
   0.221E+02 0.499E+01 -.823E+02   -.215E+02 -.553E+01 0.827E+02   -.609E+00 0.500E+00 -.498E+00   0.607E-02 0.727E-03 0.244E-02
   -.846E+02 -.109E+03 -.130E+02   0.849E+02 0.109E+03 0.131E+02   -.383E+00 0.134E+00 -.193E+00   0.307E-02 -.723E-03 0.127E-02
   -.479E+02 -.734E+02 0.481E+02   0.482E+02 0.736E+02 -.482E+02   -.291E+00 -.208E+00 0.741E-01   0.100E-02 0.108E-02 0.185E-02
   -.450E+02 0.106E+02 0.290E+02   0.450E+02 -.108E+02 -.289E+02   -.106E-01 0.220E+00 -.572E-01   0.941E-03 0.185E-02 0.334E-02
   -.135E+02 0.622E+02 -.272E+02   0.132E+02 -.627E+02 0.271E+02   0.223E+00 0.337E+00 0.137E+00   0.379E-02 0.232E-02 0.102E-02
   0.265E+01 0.948E+02 -.367E+02   -.243E+01 -.949E+02 0.368E+02   -.305E+00 -.811E-01 -.210E+00   0.370E-02 0.293E-02 -.114E-02
   -.505E+02 0.849E+02 0.225E+02   0.502E+02 -.851E+02 -.221E+02   0.279E+00 0.189E+00 -.394E+00   -.383E-03 -.197E-03 0.127E-02
   -.115E+03 -.144E+02 0.710E+02   0.115E+03 0.145E+02 -.715E+02   0.300E+00 -.140E+00 0.468E+00   -.101E-02 0.711E-04 0.242E-02
   -.501E+02 -.157E+02 0.200E+02   0.501E+02 0.157E+02 -.200E+02   -.420E-01 -.388E-01 -.126E-01   0.157E-02 -.397E-03 0.198E-02
   -.344E+02 0.412E+01 -.254E+02   0.344E+02 -.427E+01 0.255E+02   0.177E-01 0.117E+00 -.108E+00   0.499E-02 0.100E-02 0.104E-02
   -.318E+02 0.411E+02 -.441E+02   0.320E+02 -.410E+02 0.439E+02   -.978E-01 -.142E+00 0.213E+00   0.316E-02 0.178E-02 -.841E-03
   -.546E+02 0.447E+02 -.201E+02   0.547E+02 -.445E+02 0.202E+02   -.235E-01 -.192E+00 -.182E+00   -.927E-03 0.373E-03 -.952E-03
[...]
   -.672E+02 -.161E+02 0.171E+02   0.672E+02 0.161E+02 -.171E+02   0.145E+00 0.366E-01 -.872E-01   -.742E-02 -.151E-02 0.493E-02
   0.154E+01 -.297E+02 0.864E+01   -.157E+01 0.295E+02 -.886E+01   0.695E-01 0.191E+00 0.185E+00   -.418E-02 0.532E-03 0.201E-03
   -.309E+01 0.231E+02 0.121E+02   0.306E+01 -.233E+02 -.124E+02   0.411E-01 0.172E+00 0.372E+00   -.170E-02 0.312E-02 -.490E-02
   -.953E+02 0.170E+03 -.568E+02   0.956E+02 -.170E+03 0.568E+02   -.247E+00 0.621E+00 -.207E-01   -.326E-02 0.476E-02 -.633E-02
   -.274E+01 0.382E+02 0.152E+02   0.262E+01 -.381E+02 -.153E+02   0.134E+00 -.115E+00 0.113E+00   0.881E-03 0.436E-03 -.404E-02
   0.950E+02 -.711E+02 0.146E+03   -.941E+02 0.712E+02 -.146E+03   -.844E+00 -.112E+00 0.343E+00   0.675E-03 0.196E-03 -.786E-02
   0.130E+03 -.144E+03 0.127E+03   -.130E+03 0.145E+03 -.126E+03   -.132E+00 -.538E+00 -.757E+00   0.181E-02 -.398E-02 -.388E-02
   0.940E+02 -.442E+02 0.130E+03   -.942E+02 0.437E+02 -.131E+03   0.135E+00 0.524E+00 0.380E+00   -.255E-02 0.379E-02 -.836E-02
   0.110E+03 -.604E+02 0.127E+03   -.111E+03 0.599E+02 -.126E+03   0.609E+00 0.575E+00 -.682E+00   -.591E-02 -.158E-02 -.310E-02
   0.189E+02 -.126E+03 -.387E+02   -.189E+02 0.126E+03 0.383E+02   -.851E-01 0.198E+00 0.341E+00   0.344E-02 -.258E-03 0.223E-03
   -.780E+02 -.600E+02 0.990E+02   0.776E+02 0.598E+02 -.991E+02   0.358E+00 0.276E+00 0.877E-01   0.144E-02 -.254E-02 -.514E-04
   0.137E+03 0.174E+02 -.493E+02   -.137E+03 -.172E+02 0.490E+02   -.123E+00 -.203E+00 0.279E+00   0.146E-02 -.244E-02 -.153E-02
   0.198E+03 -.145E+03 0.240E+03   -.198E+03 0.145E+03 -.239E+03   -.838E-01 0.455E-01 -.229E+00   0.251E-03 -.219E-02 -.714E-02
   0.353E+02 0.509E+02 0.697E+02   -.356E+02 -.508E+02 -.698E+02   0.267E+00 -.718E-01 0.499E-01   0.262E-03 -.592E-02 -.723E-02
   0.877E+00 -.506E+00 0.223E+01   0.598E-11 -.512E-12 -.341E-12   -.878E+00 0.508E+00 -.222E+01   -.226E-02 0.680E-03 -.162E-02

 POSITION                                       TOTAL-FORCE (eV/Angst)
     -4.27779     12.18484     -0.00213        -0.057011      0.034522     -0.070168
     12.08623     -1.20386      2.10829         0.113711     -0.065758      0.004903
      6.95489      9.77542      4.17517        -0.106713      0.018980     -0.073600
     -6.86844      8.57658      6.32928         0.002790     -0.028595      0.000137
     -3.47907     -4.88878      8.54147         0.018104     -0.004670     -0.004186
     -1.66527      1.24721      2.09757         0.018790     -0.025291     -0.026723
     -2.54733      0.00852      4.21927        -0.029864      0.020124     -0.025731
     -3.38205     -1.24202      6.37834         0.009276      0.008539     -0.000869
     -2.56091      3.64620      2.08356        -0.004362      0.004864     -0.001358
     -3.41359      2.46383      4.25144        -0.005058      0.008868     -0.014816
     -4.27519      1.20776      6.35442        -0.003124      0.001309     -0.014113
     -5.10548     -0.06245      8.57730         0.021019     -0.003468     -0.025108
     -2.60243      7.41856      0.02941         0.079339     -0.023053     -0.071528
      9.51799      6.05095      2.13982        -0.073863      0.121651     -0.058383
     -4.30933      4.89301      4.25636        -0.022287      0.043195     -0.028981
     -5.15869      3.70754      6.36740        -0.017200      0.015916      0.000312
     -5.99711      2.41333      8.44014         0.023608     -0.001079     -0.049825
      8.49943      8.38826      1.89773         0.514694      0.654835     -0.099885
      7.76614      7.28936      4.23424         0.071825      0.122128     -0.138359
     -6.04741      6.13215      6.37710        -0.001341     -0.001947     -0.010250
     -6.94853      4.87816      8.55334        -0.003745     -0.007270      0.056677
     -1.61899     -5.99593     10.57142        -0.019904     -0.053519      0.118179
      1.88831     -1.04846      1.89630        -0.497891     -0.588118     -0.110581
     -3.47173      9.77319      3.60197        -0.010382     -0.012098      1.779441
     -4.32929      8.57589      6.30788        -0.029224     -0.061371     -0.066141
     -5.20629      7.33671      8.46814        -0.007140     -0.004916      0.006248
      1.70075      2.46699      0.02901         0.010413     -0.020870      0.009672
      0.90763      1.27568      2.12300         0.069107     -0.125851     -0.022012
      0.04052     -0.01470      4.17216        -0.055194      0.070237     -0.054457
     -0.86696     -1.19881      6.33613         0.070649     -0.050841     -0.128745
     -1.78938     -2.45609      8.50808         0.020705     -0.003664     -0.021111
     -3.47823     -1.26471     10.59686         0.013067      0.001136      0.018971
      0.02332      3.63992      2.11393         0.008189     -0.000859     -0.005942
     -0.84382      2.44827      4.24148         0.005473      0.013076     -0.026682
     -1.70285      1.23328      6.34211        -0.000775     -0.013328     -0.006374
     -2.58105      0.02966      8.48305         0.026580     -0.018375     -0.014088
     -0.00568      7.38495     -0.00426         0.007862     -0.002159      0.013272
     -0.87291      6.05269      2.04377        -0.024555      0.025001     -0.016859
     -1.71316      4.89248      4.23168        -0.009132     -0.007757     -0.032064
     -2.56793      3.68220      6.36525        -0.005501      0.011436     -0.020970
     -3.46089      2.46190      8.49390         0.017283     -0.006021     -0.015815
     -5.28382      3.70089     10.55958         0.069442     -0.050847     -0.048458
     -1.67206      8.55562      2.06681        -0.149461      0.064548      0.004043
     -2.61499      7.33471      4.15510         0.044463     -0.078535     -0.059437
     -3.45384      6.13622      6.35545        -0.016789      0.002967      0.003691
     -4.33550      4.87880      8.49761        -0.002562      0.017253     -0.006317
     -3.41065      6.13183     10.56761        -0.021127     -0.000728      0.022265
      4.43427     -1.17334      2.07529        -0.178257      0.004058     -0.042602
     -0.88923      9.81277      4.11044         0.072354     -0.037509     -0.066589
     -1.83879      8.53104      6.25979        -0.069878      0.046524     -0.115955
      1.76392     -4.89636      8.49235        -0.005563      0.021106     -0.015791
      0.03880     -3.63217     10.60175        -0.004204     -0.003142      0.004269
      3.53110      1.32704      2.12704        -0.067325     -0.119729      0.030007
      2.63519      0.07772      4.19825        -0.087908     -0.154117     -0.138031
      1.66714     -1.22467      6.29218         0.049543      0.054357     -0.034019
      0.80380     -2.45427      8.48718        -0.004765     -0.004764     -0.033201
     -0.87543     -1.21384     10.60265         0.011548     -0.018606      0.006978
      2.60531      3.71822      2.12660         0.010509     -0.035698      0.002367
      1.73694      2.48421      4.26356         0.025736     -0.047154     -0.026742
      0.86740      1.22524      6.35832         0.019134      0.005614      0.000767
[...]
      2.69017      3.67486     10.61568        -0.063881      0.065778     -0.056262
      5.98209      8.54055      2.11610         0.173095     -0.029800     -0.051588
      5.18658      7.35254      4.26958         0.034837     -0.005089     -0.034311
      4.36966      6.13684      6.37407         0.009930     -0.018125     -0.001064
      3.42821      5.01375      8.47160        -0.008173     -0.007766     -0.040587
     -0.83024      2.43231      0.02642         0.015912      0.016684      0.014875
     -4.22137     -2.47270      8.52657         0.008985     -0.004828     -0.001875
     -1.67012      4.88725      0.06826        -0.004874     -0.014636      0.007256
      2.67897      7.28712      8.56217        -0.006185      0.002120     -0.017427
      9.56824      2.39571      0.08667        -0.002399     -0.002048      0.017497
      5.15614     -3.63281      6.35410        -0.003772      0.003305     -0.000649
      3.46704     -2.41823      8.45676        -0.014582     -0.000557     -0.007966
      6.93446     -1.22309      6.35070        -0.012638      0.013726     -0.012079
      6.25402     -2.56019      8.69845        -0.003407      0.005992     -0.012531
      5.21657      0.06425      8.50480        -0.017523     -0.006242     -0.009920
    total drift:                               -0.002908      0.002492      0.009803

  FREE ENERGIE OF THE ION-ELECTRON SYSTEM (eV)
  free  energy   TOTEN  =     -1103.59239631 eV

  energy  without entropy=    -1103.57704121  energy(sigma->0) =    -1103.58727795

 total charge

# of ion       s       p       d       tot
    1        0.351   6.222   3.032   9.605
    2        0.369   6.233   3.092   9.693
    3        0.353   6.229   3.050   9.632
    4        0.358   6.239   3.071   9.668
    5        0.359   6.249   3.049   9.657
    6        0.362   6.244   3.083   9.689
    7        0.356   6.239   3.057   9.652
    8        0.357   6.235   3.065   9.657
    9        0.360   6.249   3.059   9.669
   10        0.359   6.241   3.060   9.660
   11        0.354   6.236   3.045   9.635
   12        0.356   6.230   3.061   9.647
   13        0.350   6.210   3.034   9.594
   14        0.358   6.236   3.084   9.678
   15        0.359   6.239   3.075   9.673
   16        0.359   6.237   3.073   9.669
   17        0.368   6.234   3.079   9.681
   18        0.358   6.208   3.107   9.674
   19        0.354   6.234   3.052   9.641
   20        0.358   6.237   3.072   9.668
   21        0.353   6.221   3.018   9.592
   22        0.377   6.239   3.146   9.762
   23        0.360   6.212   3.095   9.667
   24        0.357   6.219   3.072   9.648
   25        0.350   6.222   3.059   9.631
   26        0.358   6.236   3.075   9.669
   27        0.362   6.245   3.088   9.695
   28        0.362   6.242   3.097   9.701
   29        0.354   6.231   3.051   9.637
   30        0.356   6.229   3.077   9.661
   31        0.358   6.243   3.072   9.673
   32        0.360   6.250   3.057   9.667
   33        0.363   6.251   3.074   9.687
   34        0.360   6.242   3.073   9.675
   35        0.360   6.238   3.078   9.676
   36        0.358   6.240   3.075   9.673
   37        0.358   6.239   3.066   9.662
   38        0.359   6.241   3.078   9.678
   39        0.358   6.240   3.055   9.653
   40        0.358   6.238   3.072   9.668
   41        0.360   6.235   3.093   9.687
   42        0.349   6.214   3.033   9.597
   43        0.366   6.229   3.084   9.680
   44        0.355   6.227   3.071   9.653
   45        0.358   6.240   3.051   9.648
   46        0.358   6.240   3.066   9.664
   47        0.359   6.235   3.087   9.680
   48        0.357   6.236   3.064   9.657
   49        0.354   6.224   3.060   9.638
   50        0.354   6.216   3.092   9.663
   51        0.353   6.232   3.051   9.636
   52        0.358   6.240   3.058   9.656
   53        0.359   6.244   3.065   9.669
   54        0.357   6.240   3.040   9.638
   55        0.350   6.216   3.053   9.619
   56        0.355   6.230   3.066   9.652
   57        0.360   6.240   3.064   9.664
   58        0.361   6.242   3.080   9.683
   59        0.359   6.241   3.074   9.674
   60        0.355   6.237   3.052   9.644
[...]
  110        0.353   6.217   3.032   9.603
  111        0.358   6.235   3.083   9.676
  112        0.358   6.237   3.072   9.667
  113        0.360   6.237   3.095   9.691
  114        0.374   6.248   3.098   9.719
  115        0.418   6.340   4.151  10.909
  116        0.426   6.319   4.248  10.992
  117        0.424   6.316   4.246  10.986
  118        0.427   6.317   4.264  11.008
  119        0.426   6.320   4.247  10.994
  120        0.358   6.275   2.111   8.744
  121        0.355   6.273   2.111   8.739
  122        0.356   6.276   2.104   8.736
  123        0.370   6.298   2.154   8.822
  124        0.355   6.278   2.092   8.725
tot         44.708 773.750 381.5361199.994