 vasp.6.4.2 20Jul23 (build Sep 20 2024 16:56:05) complex
 executed on              LinuxNV date 2025.02.03  19:18:39
 OpenACC runtime initialized ...    4 GPUs detected

 INCAR:
   PREC = Accurate
   ENCUT = 520
   EDIFF = 1e-06
   ISMEAR = 1
   SIGMA = 0.2
   NSW = 0
   IBRION = -1
   LWAVE = .FALSE.
   LCHARG = .TRUE.
   LREAL = .FALSE.
   ALGO = Normal

 POTCAR:    PAW_PBE Cr_pv 02Aug2007
 POTCAR:    PAW_PBE Ti_pv 07Sep2000
 POTCAR:    PAW_PBE V_pv 07Sep2000
 POTCAR:    PAW_PBE W_sv 04Sep2015
 POTCAR:    PAW_PBE Zr_sv 04Jan2005
 POTCAR:    PAW_PBE Cr_pv 02Aug2007
   VRHFIN =Cr : p6d5s1

   TITEL  = PAW_PBE Cr_pv 02Aug2007
   POMASS =   51.996; ZVAL   =   12.000    mass and valenz
   ENMAX  =  265.681; ENMIN  =  199.261 eV

   TITEL  = PAW_PBE Ti_pv 07Sep2000
   POMASS =   47.880; ZVAL   =   10.000    mass and valenz
   ENMAX  =  222.335; ENMIN  =  166.751 eV

   TITEL  = PAW_PBE V_pv 07Sep2000
   POMASS =   50.941; ZVAL   =   11.000    mass and valenz
   ENMAX  =  263.673; ENMIN  =  197.755 eV

   TITEL  = PAW_PBE W_sv 04Sep2015
   POMASS =  183.850; ZVAL   =   14.000    mass and valenz
   ENMAX  =  223.057; ENMIN  =  167.293 eV

   TITEL  = PAW_PBE Zr_sv 04Jan2005
   POMASS =   91.224; ZVAL   =   12.000    mass and valenz
   ENMAX  =  229.898; ENMIN  =  172.424 eV

  PAW_PBE Cr_pv 02Aug2007               :
  PAW_PBE Ti_pv 07Sep2000               :
  PAW_PBE V_pv 07Sep2000                :
  PAW_PBE W_sv 04Sep2015                :
  PAW_PBE Zr_sv 04Jan2005               :

 POSCAR: Cr Ti V  W  Zr
  positions in cartesian coordinates
 exchange correlation table for  LEXCH =        8
   RHO(1)=    0.500       N(1)  =     2000
   RHO(2)=  100.500       N(2)  =     4000

 ion  position               nearest neighbor table
   1  0.001  0.750  0.997- 121 2.50 109 2.59  37 2.60  26 2.60  31 2.60 117 2.60 122 2.61 115 2.61
                            36 2.98  32 3.00  12 3.01 126 3.16
   2  0.381  0.375  0.123-  73 2.49  52 2.52  71 2.53  51 2.55  79 2.55  81 2.58  45 2.60  46 2.62
                            20 2.95  72 3.00  47 3.01  50 3.01  39 3.02   3 3.03
   3  0.377  0.626  0.120-  87 2.53  52 2.53  51 2.54  57 2.55  79 2.56  59 2.58  89 2.61  81 2.62
                            56 2.99  80 3.00  26 3.00   2 3.03 123 3.05
   4  0.749  0.261  0.493- 104 2.43  74 2.45  98 2.52 105 2.59  76 2.60  67 2.65  10 2.66 127 2.73
                           112 2.94 103 2.97  22 2.99
   5  0.022  0.229  0.272-  13 2.64  21 2.65  98 2.66  20 2.74  22 2.76  14 2.77  96 2.78 104 2.84
                            46 2.86 102 2.95
   6  0.122  0.623  0.367-  27 2.64  32 2.66  28 2.69  34 2.70  59 2.70  53 2.71  52 2.73  21 2.76
                             9 2.77  33 2.91  26 2.98 111 2.98 123 3.09
   7  0.246  0.003  0.490-  16 2.63  60 2.65  42 2.73  33 2.73  41 2.74  35 2.75  61 2.78  40 2.88
                            68 2.97   9 3.01   8 3.01  15 3.04
   8  0.244  0.252  0.487-  47 2.62  21 2.63  16 2.66  23 2.71  41 2.73  42 2.74  48 2.76  46 2.88
                            22 3.00  75 3.01   7 3.01  53 3.01
   9  0.249  0.755  0.504-  35 2.60  33 2.63  61 2.67  54 2.68  29 2.69 123 2.71  60 2.74   6 2.77
                            62 2.98   7 3.01  91 3.03
  10  0.873  0.128  0.618-  24 2.65  22 2.66   4 2.66  17 2.70  15 2.71  99 2.73 106 2.77 100 2.82
                            16 2.83  98 2.88 105 3.02 127 3.03 125 3.09 124 3.10
  11  0.747  0.751  0.251- 118 2.63  82 2.64  88 2.65 109 2.66  80 2.66  90 2.66 111 2.68 117 2.69
                            89 2.97  32 2.98 119 2.99  97 3.00 116 3.02 110 3.04
  12  0.002  0.999  0.999- 117 2.58  13 2.58 122 2.59 124 2.59 121 2.61  37 2.61  96 2.61  18 2.62
                             1 3.01
  13  0.131  0.123  0.116-  19 2.51  38 2.54  40 2.55  45 2.57  12 2.58   5 2.64  46 2.71  14 2.71
                            20 2.91 122 3.00
  14  0.003  0.001  0.254-  96 2.56  33 2.56 118 2.59 122 2.68 117 2.69  13 2.71  98 2.75   5 2.77
                            15 2.83
  15  0.995  0.992  0.488- 118 2.44  16 2.54  33 2.60  98 2.63 125 2.67  35 2.67  10 2.71  14 2.83
                             7 3.04
  16  0.107  0.126  0.604-  22 2.50  15 2.54  24 2.56  17 2.61   7 2.63   8 2.66  43 2.81  49 2.81
                            10 2.83
  17  0.004  0.998  0.743-  35 2.48  37 2.61  16 2.61 125 2.63  18 2.64 124 2.67  10 2.70 121 2.72

  18  0.129  0.121  0.872-  43 2.55  38 2.57  19 2.61  12 2.62  49 2.63  17 2.64  24 2.66  45 2.69
                           124 3.04
  19  0.005  0.241  0.001-  13 2.51 124 2.61  18 2.61  96 2.61  20 2.68  25 2.72 102 2.72 107 2.76
                           126 2.99
  20  0.138  0.363  0.130-  46 2.45  45 2.54  52 2.56  19 2.68  27 2.69  51 2.72   5 2.74 126 2.75
                            13 2.91   2 2.95
  21  0.125  0.394  0.373-  27 2.49  53 2.55  28 2.59  52 2.62   8 2.63   5 2.65  22 2.67   6 2.76
                            46 2.79
  22  0.996  0.264  0.497- 104 2.46  16 2.50 105 2.56  23 2.59  10 2.66  21 2.67  98 2.74   5 2.76
                            28 2.89   4 2.99   8 3.00
  23  0.123  0.382  0.623-  28 2.56  30 2.56  24 2.57  53 2.58  22 2.59  55 2.62  49 2.64   8 2.71

  24  0.007  0.250  0.742-  16 2.56  23 2.57  25 2.57  10 2.65  18 2.66 107 2.66 105 2.67 124 2.71

  25  0.138  0.363  0.866-  49 2.44  55 2.56  45 2.56  24 2.57  19 2.72  30 2.74 126 2.74  51 2.76
                            50 2.90
  26  0.129  0.629  0.121-  57 2.57  59 2.59   1 2.60  52 2.65  51 2.68  32 2.68 126 2.73  27 2.74
                           122 2.97   6 2.98   3 3.00
  27  0.997  0.492  0.245-  21 2.49 102 2.57 109 2.63   6 2.64 104 2.65 111 2.67  20 2.69  26 2.74
                           126 3.00
  28  0.995  0.503  0.505- 113 2.53 111 2.56  23 2.56 105 2.56  21 2.59  29 2.62 104 2.66   6 2.69
                            22 2.89
  29  0.122  0.624  0.632-  30 2.52  36 2.56  55 2.60  62 2.62  28 2.62  34 2.65  53 2.68   9 2.69

  30  0.001  0.501  0.749-  29 2.52  23 2.56 113 2.60 105 2.64 107 2.66 115 2.67  31 2.70  25 2.74
                           126 3.00
  31  0.131  0.631  0.874-  62 2.53  57 2.55  36 2.60   1 2.60  55 2.62  30 2.70  51 2.72 126 2.75

  32  0.993  0.753  0.245-  33 2.50 109 2.52 117 2.54 118 2.61 122 2.64   6 2.66 111 2.67  26 2.68
                            11 2.98   1 3.00
  33  0.117  0.863  0.368-  32 2.50  14 2.56  34 2.59  15 2.60   9 2.63  59 2.64   7 2.73  40 2.73
                             6 2.91 122 2.99
  34  0.995  0.748  0.502- 113 2.58  33 2.59 111 2.60  35 2.61 125 2.61 118 2.65  29 2.65   6 2.70

  35  0.118  0.873  0.627-  17 2.48  36 2.57   9 2.60  43 2.60  34 2.61  62 2.63  15 2.67   7 2.75
                           125 3.00
  36  1.000  0.748  0.751-  29 2.56 115 2.56  35 2.57 121 2.59  31 2.60  37 2.61 113 2.63 125 2.64
                             1 2.98
  37  0.125  0.874  0.873-  62 2.58   1 2.60  12 2.61  17 2.61  36 2.61  38 2.64  43 2.64  57 2.67
                           122 3.00
  38  0.253  0.001  0.997-  13 2.54  63 2.56  44 2.56  18 2.57  58 2.59  39 2.61 122 2.63  37 2.64

[...]

  96  0.880  0.120  0.129-  14 2.56  97 2.57  12 2.61  19 2.61 103 2.63  95 2.64 101 2.67   5 2.78
                           124 3.07
  97  0.750  0.999  0.246-  96 2.57  65 2.60  98 2.60 118 2.61  88 2.62 117 2.63  90 2.65  67 2.65
                            11 3.00
  98  0.861  0.125  0.380-  99 2.51   4 2.52 103 2.55  97 2.60  15 2.63   5 2.66  22 2.74  14 2.75
                            67 2.85  10 2.88
  99  0.745  0.993  0.491-  90 2.48  98 2.51 118 2.53  67 2.65 125 2.65  92 2.67  10 2.73 127 2.77

[...]

 102  0.871  0.362  0.134- 103 2.42 101 2.53  27 2.57 110 2.63  19 2.72 108 2.76 126 2.77   5 2.95

[...]

 105  0.871  0.378  0.624-  22 2.56  28 2.56   4 2.59 112 2.59 114 2.60 106 2.61  30 2.64  24 2.67
                            10 3.02
 106  0.754  0.260  0.761- 107 2.32  78 2.54 105 2.61 124 2.63  76 2.70  70 2.72 127 2.75  10 2.77

 107  0.870  0.369  0.868- 106 2.32 114 2.61 101 2.61  30 2.66  24 2.66 126 2.67 108 2.70  19 2.76
                           124 2.98
 108  0.747  0.500  0.000-  80 2.55  78 2.57  72 2.57  86 2.60 115 2.67 109 2.68 107 2.70 102 2.76
                           126 3.10
 109  0.878  0.629  0.124-  32 2.52 116 2.59   1 2.59  27 2.63  11 2.66 108 2.68 110 2.68 126 2.74

 110  0.750  0.499  0.251-  72 2.58 111 2.60  74 2.60 104 2.61  80 2.62  82 2.62 102 2.63 109 2.68
                            11 3.04
 111  0.875  0.621  0.376-  28 2.56 112 2.58 110 2.60  34 2.60 119 2.64  32 2.67  27 2.67  11 2.68
                             6 2.98
 112  0.748  0.503  0.501-  82 2.54 111 2.58  76 2.58  84 2.59 113 2.59 105 2.59  74 2.62 104 2.62
                             4 2.94
 113  0.874  0.623  0.625-  28 2.53 114 2.58  34 2.58 112 2.59  30 2.60 120 2.63  36 2.63 119 2.65
                           125 3.01
 114  0.749  0.502  0.749- 113 2.58  84 2.60 105 2.60  86 2.61 107 2.61  76 2.61 115 2.62  78 2.62

 115  0.872  0.630  0.872- 120 2.53  36 2.56 116 2.59   1 2.61 114 2.62  30 2.67 108 2.67 126 2.77
                           121 2.89
 116  0.748  0.747  0.001-  80 2.58 109 2.59 115 2.59  94 2.60  86 2.60 121 2.61 117 2.63  88 2.64
                            11 3.02
 117  0.877  0.876  0.120-  32 2.54  95 2.55  12 2.58   1 2.60  97 2.63 116 2.63  11 2.69  14 2.69
                           121 2.91 122 3.01
 118  0.874  0.878  0.374-  15 2.44  99 2.53  14 2.59  32 2.61  97 2.61  11 2.63  34 2.65 119 2.68
                           125 3.05
 119  0.746  0.747  0.498-  82 2.56  84 2.59 125 2.63 111 2.64 113 2.65  92 2.65  90 2.66 118 2.68
                            11 2.99
 120  0.747  0.746  0.751- 115 2.53  86 2.57  84 2.60 125 2.61  94 2.62 113 2.63  92 2.64 121 2.68

 121  0.879  0.869  0.879-   1 2.50 100 2.56  36 2.59  12 2.61 116 2.61  95 2.66 120 2.68  17 2.72
                           115 2.89 117 2.91 124 3.06 125 3.07
 122  0.126  0.875  0.121-  12 2.59  59 2.61   1 2.61  38 2.63  32 2.64  57 2.66  14 2.68  40 2.69
                            26 2.97  33 2.99  13 3.00  37 3.00 117 3.01  58 3.03
 123  0.377  0.626  0.373-  89 2.61  83 2.63  91 2.63  59 2.63  81 2.64  53 2.65  52 2.65   9 2.71
                            47 2.99  82 3.00   3 3.05   6 3.09  60 3.09  54 3.10
 124  0.878  0.122  0.875-  12 2.59 100 2.59  19 2.61 106 2.63  95 2.66  17 2.67 101 2.68  24 2.71
                           107 2.98  18 3.04 121 3.06  96 3.07  70 3.09  10 3.10
 125  0.870  0.872  0.625-  34 2.61 120 2.61 100 2.62 119 2.63  17 2.63  36 2.64  99 2.65  15 2.67
                            35 3.00 113 3.01  92 3.04 118 3.05 121 3.07  10 3.09
 126  0.003  0.489  0.997- 107 2.67  26 2.73 109 2.74  25 2.74  31 2.75  20 2.75 115 2.77 102 2.77
                            19 2.99  27 3.00  30 3.00 108 3.10  51 3.13   1 3.16
 127  0.623  0.130  0.628-   4 2.73  75 2.74  77 2.74 106 2.75  69 2.77  99 2.77  68 2.78 100 2.80
                            76 3.00  42 3.01  10 3.03  70 3.09  92 3.12  67 3.13

  LATTYP: Found a triclinic cell.
 ALAT       =    12.0889088634
 B/A-ratio  =     1.4123653354
 C/A-ratio  =     1.0003784144
 COS(alpha) =     0.0000662354
 COS(beta)  =     0.0003254019
 COS(gamma) =     0.7059733845

  Lattice vectors:

[...]
    -0.001397384  0.017572180 12.092468779     0.000009572 -0.000120209  0.082696275

  length of vectors
    12.093483480 12.088908863 12.092481627     0.082689167  0.082720805  0.082696363

 FORCES acting on ions
    electron-ion (+dipol)            ewald-force                    non-local-force                 convergence-correction
   0.212E+02 0.985E+02 -.173E+02   -.213E+02 -.986E+02 0.173E+02   0.637E-01 0.624E-01 -.712E-01   0.303E-04 0.405E-02 0.313E-02
   0.744E+02 0.596E+02 -.307E+02   -.744E+02 -.600E+02 0.306E+02   0.883E-02 0.360E+00 0.127E-01   -.307E-02 -.571E-02 0.709E-02
   0.296E+02 -.289E+02 -.398E+02   -.295E+02 0.293E+02 0.395E+02   -.522E-01 -.315E+00 0.273E+00   -.102E-02 -.521E-02 0.711E-02
   -.219E+02 0.134E+03 -.971E+02   0.222E+02 -.133E+03 0.962E+02   -.294E+00 -.115E+01 0.959E+00   0.644E-02 -.517E-02 0.273E-02
   -.995E+02 0.704E+02 -.113E+03   0.986E+02 -.693E+02 0.112E+03   0.908E+00 -.111E+01 0.112E+01   -.272E-03 0.801E-03 0.861E-02
   -.160E+01 -.150E+02 -.396E+02   0.153E+01 0.151E+02 0.396E+02   0.591E-01 -.913E-01 0.439E-01   -.885E-03 -.466E-02 0.380E-02
   0.109E+03 -.119E+03 0.728E+02   -.108E+03 0.118E+03 -.721E+02   -.110E+01 0.115E+01 -.845E+00   -.369E-02 0.169E-02 -.341E-03
   0.123E+03 0.178E+03 0.668E+02   -.122E+03 -.178E+03 -.659E+02   -.970E+00 -.722E+00 -.970E+00   -.604E-02 0.123E-02 -.287E-02
   0.379E+02 -.669E+02 0.287E+02   -.375E+02 0.667E+02 -.286E+02   -.377E+00 0.230E+00 -.117E+00   -.365E-02 0.434E-03 -.274E-02
   -.505E+01 0.118E+02 0.302E+02   0.534E+01 -.118E+02 -.303E+02   -.313E+00 0.588E-01 0.135E+00   0.170E-02 0.241E-02 -.304E-02
   -.263E+02 -.329E+01 -.232E+02   0.264E+02 0.321E+01 0.230E+02   -.521E-01 0.828E-01 0.202E+00   0.970E-03 0.164E-02 0.541E-02
   0.216E+00 -.652E+02 -.282E+02   -.213E+00 0.656E+02 0.279E+02   0.260E-02 -.359E+00 0.328E+00   -.211E-02 0.643E-02 0.122E-03
   0.541E+02 -.724E+02 -.206E+03   -.539E+02 0.724E+02 0.206E+03   -.170E+00 -.132E-01 -.117E-01   -.153E-02 0.251E-02 0.649E-02
   -.114E+03 -.187E+03 -.177E+03   0.113E+03 0.187E+03 0.176E+03   0.721E+00 0.327E+00 0.712E+00   0.150E-03 0.536E-02 0.785E-02
   -.200E+03 -.202E+03 0.858E+02   0.201E+03 0.202E+03 -.851E+02   -.489E-01 0.823E+00 -.783E+00   -.249E-02 0.880E-02 0.796E-03
   -.114E+03 0.862E+01 0.200E+03   0.114E+03 -.894E+01 -.196E+03   0.172E+00 0.307E+00 -.238E+01   -.105E-01 0.262E-02 -.350E-02
   -.290E+02 -.938E+02 0.912E+02   0.291E+02 0.939E+02 -.901E+02   -.134E+00 -.154E+00 -.104E+01   -.461E-02 0.907E-02 -.860E-02
   -.192E+01 -.461E+02 0.762E+02   0.186E+01 0.466E+02 -.757E+02   0.655E-01 -.520E+00 -.646E+00   -.572E-02 0.243E-02 -.552E-02
   -.604E+01 -.122E+03 -.772E+02   0.603E+01 0.122E+03 0.769E+02   0.837E-02 -.563E+00 0.329E+00   -.197E-02 -.259E-02 -.247E-03
   0.177E+03 0.135E+02 -.508E+02   -.177E+03 -.137E+02 0.510E+02   0.160E+00 0.198E+00 -.268E+00   0.183E-02 -.333E-02 0.970E-02
   0.973E+01 0.168E+03 0.217E+01   -.938E+01 -.168E+03 -.218E+01   -.351E+00 0.150E+00 0.621E-02   -.363E-02 -.193E-02 0.164E-02
   -.173E+03 0.182E+03 0.125E+03   0.174E+03 -.181E+03 -.125E+03   -.148E+00 -.114E+01 -.360E+00   -.278E-02 -.246E-02 0.334E-03
   -.474E+02 0.103E+03 0.828E+02   0.478E+02 -.103E+03 -.826E+02   -.386E+00 -.930E-01 -.263E+00   -.744E-02 -.558E-02 -.844E-02
   -.149E+02 0.232E+02 0.546E+02   0.148E+02 -.229E+02 -.541E+02   0.273E-02 -.256E+00 -.443E+00   -.521E-02 -.518E-02 -.977E-02
   0.896E+02 -.334E+02 -.429E+02   -.894E+02 0.333E+02 0.428E+02   -.709E-01 0.136E+00 0.124E+00   -.389E-02 -.683E-02 -.347E-02
   0.880E+02 0.122E+03 -.739E+02   -.879E+02 -.121E+03 0.747E+02   -.910E-01 -.608E+00 -.822E+00   -.881E-03 -.379E-02 0.101E-01
   -.296E+02 0.478E+02 0.159E+02   0.289E+02 -.471E+02 -.163E+02   0.682E+00 -.688E+00 0.398E+00   0.406E-02 -.649E-02 0.105E-01
   -.865E+02 0.127E+02 0.802E+02   0.863E+02 -.130E+02 -.801E+02   0.192E+00 0.218E+00 -.113E+00   0.164E-02 -.750E-02 -.424E-02
   -.565E+02 -.201E+02 0.115E+03   0.567E+02 0.200E+02 -.115E+03   -.162E+00 0.765E-01 0.204E+00   -.190E-02 -.167E-02 -.105E-01
   -.175E+02 0.550E+02 -.642E+02   0.173E+02 -.550E+02 0.643E+02   0.222E+00 0.462E-01 -.196E+00   -.269E-02 -.728E-02 -.101E-01
   0.426E+02 0.115E+03 0.331E+00   -.423E+02 -.114E+03 -.822E+00   -.323E+00 -.458E+00 0.480E+00   -.187E-02 -.233E-02 -.393E-02
   0.144E+01 0.630E+02 -.104E+03   -.208E+01 -.634E+02 0.104E+03   0.629E+00 0.395E+00 -.116E+00   0.310E-02 0.109E-02 0.804E-02
   -.101E+03 -.132E+03 -.110E+03   0.101E+03 0.132E+03 0.110E+03   -.117E+00 0.755E-01 0.155E+00   -.218E-02 0.312E-02 0.375E-02
   -.112E+03 0.580E+01 0.824E+02   0.112E+03 -.597E+01 -.824E+02   -.295E+00 0.212E+00 0.779E-01   0.269E-02 0.857E-03 -.153E-02
   -.111E+03 -.828E+02 0.158E+03   0.111E+03 0.828E+02 -.158E+03   0.320E-01 0.266E-01 -.373E-01   -.393E-02 0.494E-02 -.703E-02
   -.351E+02 0.181E+02 0.385E+02   0.352E+02 -.182E+02 -.385E+02   -.141E+00 0.104E+00 -.318E-02   -.186E-02 0.352E-02 -.951E-02
   -.312E+02 -.469E+02 0.684E+02   0.313E+02 0.467E+02 -.684E+02   -.539E-01 0.981E-01 -.480E-01   -.302E-02 0.740E-02 -.409E-02
   -.395E+01 -.398E+02 0.503E+01   0.408E+01 0.397E+02 -.538E+01   -.131E+00 0.330E-01 0.331E+00   -.308E-02 0.533E-02 0.313E-02
   0.606E+02 0.266E+02 -.693E+02   -.605E+02 -.270E+02 0.694E+02   -.571E-01 0.389E+00 -.962E-01   -.253E-02 0.584E-02 0.558E-02
   0.132E+03 -.132E+03 -.254E+03   -.131E+03 0.131E+03 0.254E+03   -.833E+00 0.794E+00 0.563E+00   -.336E-02 0.373E-02 0.410E-02
   0.234E+03 0.302E+02 -.132E+03   -.234E+03 -.304E+02 0.131E+03   0.471E+00 0.192E+00 0.288E+00   0.752E-03 0.239E-02 0.956E-03
   0.682E+02 0.171E+02 0.123E+03   -.675E+02 -.174E+02 -.123E+03   -.794E+00 0.352E+00 0.389E-01   0.188E-02 0.573E-03 -.362E-02
   0.140E+02 -.634E+02 0.149E+03   -.139E+02 0.634E+02 -.149E+03   -.589E-02 -.684E-01 -.337E+00   -.427E-02 0.542E-02 -.712E-02
   0.110E+02 -.195E+01 0.850E+02   -.111E+02 0.195E+01 -.851E+02   0.102E+00 -.887E-02 0.678E-02   0.522E-03 0.252E-02 -.213E-02
   0.863E+02 0.102E+02 0.127E+02   -.861E+02 -.102E+02 -.128E+02   -.251E+00 0.322E-01 0.863E-01   -.100E-03 0.616E-03 0.667E-02
   0.209E+03 0.147E+03 -.227E+03   -.209E+03 -.147E+03 0.226E+03   -.573E+00 -.263E+00 0.360E+00   -.133E-02 0.393E-02 0.268E-02
   0.129E+03 0.856E+02 -.845E+02   -.129E+03 -.851E+02 0.844E+02   -.848E-01 -.499E+00 0.134E+00   -.465E-02 -.346E-02 -.235E-02
   0.703E+02 0.106E+03 0.573E+02   -.704E+02 -.106E+03 -.572E+02   0.602E-01 -.739E-01 -.173E+00   -.482E-03 -.421E-02 -.513E-02
   0.267E+02 0.697E+02 0.137E+03   -.265E+02 -.700E+02 -.137E+03   -.218E+00 0.299E+00 0.767E-01   -.496E-02 -.350E-02 -.664E-02
   0.493E+02 0.288E+02 0.575E+02   -.497E+02 -.285E+02 -.575E+02   0.483E+00 -.268E+00 -.423E-01   0.132E-02 -.461E-02 0.904E-03
   0.179E+03 0.401E+02 0.430E+02   -.179E+03 -.399E+02 -.426E+02   0.481E+00 -.217E+00 -.438E+00   0.182E-04 -.910E-02 0.673E-02
   0.180E+03 0.268E+02 -.103E+03   -.179E+03 -.266E+02 0.103E+03   -.288E+00 -.224E+00 0.578E+00   -.468E-02 -.993E-02 0.698E-02
   0.835E+02 0.159E+02 0.222E+02   -.833E+02 -.158E+02 -.217E+02   -.253E+00 -.169E+00 -.531E+00   -.743E-02 -.325E-02 -.569E-02
   0.729E+02 -.560E+02 0.673E+02   -.726E+02 0.561E+02 -.672E+02   -.300E+00 -.180E-01 -.134E+00   -.442E-02 -.506E-03 -.698E-02
   0.471E+02 0.291E+02 0.365E+02   -.470E+02 -.289E+02 -.367E+02   -.112E+00 -.189E+00 0.190E+00   -.280E-02 -.432E-02 -.796E-02
   0.285E+02 0.456E+01 0.568E+02   -.286E+02 -.473E+01 -.571E+02   0.101E+00 0.177E+00 0.263E+00   0.146E-02 -.295E-02 -.209E-02
   0.212E+02 -.121E+02 0.249E+02   -.207E+02 0.123E+02 -.246E+02   -.537E+00 -.133E+00 -.298E+00   -.254E-02 0.297E-02 0.396E-02
   0.187E+02 -.535E+02 -.628E+02   -.186E+02 0.537E+02 0.630E+02   -.222E-01 -.246E+00 -.240E+00   -.121E-02 0.423E-02 0.659E-02
   0.792E+02 -.379E+02 -.159E+03   -.787E+02 0.374E+02 0.158E+03   -.457E+00 0.497E+00 0.842E-01   -.471E-02 0.179E-02 0.896E-02
   0.128E+03 -.512E+02 -.124E+03   -.128E+03 0.508E+02 0.124E+03   -.536E+00 0.414E+00 0.416E+00   -.116E-02 0.189E-02 0.371E-02
[...]
   -.319E+02 0.311E+02 -.158E+02   0.317E+02 -.311E+02 0.159E+02   0.183E+00 0.409E-01 -.149E+00   0.269E-02 -.892E-02 -.519E-02
   -.409E+02 0.106E+03 -.383E+02   0.405E+02 -.105E+03 0.381E+02   0.453E+00 -.418E+00 0.188E+00   -.190E-02 -.318E-02 -.470E-02
   -.112E+02 0.308E+01 -.491E+02   0.109E+02 -.293E+01 0.494E+02   0.314E+00 -.162E+00 -.237E+00   -.430E-03 0.277E-02 -.480E-05
   0.407E+02 -.119E+02 -.993E+02   -.406E+02 0.120E+02 0.991E+02   -.166E+00 -.728E-01 0.122E+00   0.136E-02 0.659E-02 0.508E-02
   -.236E+02 0.137E+01 0.321E+02   0.235E+02 -.200E+01 -.324E+02   0.125E+00 0.662E+00 0.300E+00   0.394E-02 0.795E-02 0.527E-02
   -.630E+01 -.329E+02 0.629E+02   0.631E+01 0.330E+02 -.633E+02   -.143E-02 -.744E-01 0.401E+00   0.389E-02 0.415E-02 -.117E-02
   0.206E+02 -.203E+02 0.158E+02   -.209E+02 0.205E+02 -.156E+02   0.335E+00 -.157E+00 -.160E+00   0.283E-02 0.505E-02 -.481E-02
   0.236E+02 -.368E+02 0.315E+02   -.237E+02 0.368E+02 -.314E+02   0.531E-01 0.519E-01 -.972E-01   -.199E-02 0.961E-02 -.649E-02
   -.126E+02 -.769E+02 -.147E+03   0.126E+02 0.768E+02 0.147E+03   -.227E-02 0.111E+00 0.147E-01   -.202E-02 0.701E-02 0.981E-02
   0.132E+03 -.675E+02 -.110E+03   -.131E+03 0.674E+02 0.110E+03   -.195E+00 0.182E+00 -.612E-01   -.709E-02 -.127E-02 0.333E-02
   -.939E+01 -.499E+02 0.791E+02   0.940E+01 0.501E+02 -.790E+02   -.408E-01 -.124E+00 0.722E-02   -.267E-02 0.264E-02 -.101E-01
   -.124E+02 -.116E+03 0.596E+02   0.126E+02 0.116E+03 -.597E+02   -.124E+00 0.112E+00 0.818E-01   0.157E-02 0.122E-01 -.453E-02
   -.992E+00 0.712E+02 -.382E+02   0.958E+00 -.711E+02 0.385E+02   0.394E-01 -.136E+00 -.332E+00   -.684E-03 -.763E-02 0.399E-02
   0.455E+01 0.396E+02 -.215E+01   -.472E+01 -.396E+02 0.196E+01   0.139E+00 0.280E-01 0.176E+00   0.701E-02 0.122E-02 -.281E-02
   -.131E+00 0.752E+00 -.193E+00   -.370E-11 -.166E-11 -.513E-12   0.127E+00 -.748E+00 0.199E+00   0.784E-02 -.353E-03 -.181E-02

 POSITION                                       TOTAL-FORCE (eV/Angst)
      0.01075      9.08575     12.07263        -0.000693     -0.006212     -0.013578
      4.60322      4.53773      1.49317         0.005957      0.006281     -0.002626
      4.56129      7.56886      1.46610        -0.002771      0.000365      0.001733
      9.05938      3.15661      5.96237         0.004365      0.026032      0.006500
      0.26865      2.77280      3.29763         0.038769     -0.046913      0.002490
      1.47251      7.53594      4.44854        -0.002104     -0.000632      0.021537
      2.97035      0.05006      5.92373        -0.189782      0.199853     -0.158258
      2.95289      3.05951      5.89506        -0.195285     -0.175393     -0.158380
      3.00918      9.13452      6.10753         0.004822      0.023638      0.000003
     10.56170      1.55914      7.47375        -0.021551      0.002863     -0.016747
      9.03173      9.07916      3.04875         0.015267      0.003890      0.004801
      0.02557     12.09539     12.09421         0.003443      0.005353     -0.008954
      1.58208      1.48627      1.40151         0.019119     -0.007403     -0.034650
      0.03629      0.01953      3.07617        -0.005971     -0.028922     -0.029322
     12.02453     11.99985      5.91449         0.159936      0.271812     -0.026781
      1.29376      1.53558      7.30396         0.099011     -0.006726      1.371124
      0.04365     12.07203      9.00762        -0.067966     -0.033675      0.016841
      1.56017      1.47648     10.55013         0.002585      0.006108     -0.127412
      0.06136      2.91903      0.01436         0.001916     -0.011331     -0.002630
      1.66266      4.39399      1.58269         0.001600      0.002581     -0.010982
      1.51195      4.77261      4.52239        -0.002285      0.026091     -0.010562
     12.04972      3.19829      6.00773         0.158510     -0.250568     -0.030140
      1.48260      4.62674      7.54393        -0.011127     -0.069158     -0.040143
      0.07730      3.03193      8.98204        -0.084401      0.055655      0.021995
      1.66194      4.40190     10.47284         0.028582      0.029172     -0.012879
      1.55779      7.60624      1.46899         0.001476     -0.012581     -0.010582
     12.05865      5.95165      2.96722        -0.008589     -0.014558      0.008995
     12.03373      6.08355      6.11314        -0.006739     -0.034321      0.018793
      1.46850      7.55354      7.64913         0.002011     -0.002030     -0.021315
      0.00579      6.06406      9.06395        -0.005464      0.013712     -0.025637
      1.58211      7.64709     10.58469        -0.002294     -0.001796     -0.015403
     12.01254      9.10486      2.97337        -0.006588      0.000591      0.001280
      1.41637     10.44293      4.46728        -0.021582     -0.048820     -0.036404
     12.03683      9.04740      6.07939         0.008226      0.039218      0.003520
      1.42926     10.56851      7.59559         0.010445      0.083188     -0.018454
     12.08675      9.05800      9.09256        -0.007576      0.000244     -0.023024
      1.50613     10.58515     10.57241         0.006995     -0.012961     -0.018643
      3.05410      0.02307     12.05324        -0.000205     -0.001070     -0.010241
      4.53986      1.51458      1.48394         0.022027     -0.001098     -0.031455
      2.96147      0.12097      3.04819         0.016124     -0.011073     -0.037638
      4.71323      1.56401      4.43933         0.074002      0.012536     -0.067852
      4.52215      1.56746      7.57482        -0.099772      0.007614     -0.017476
      2.96935      0.03792      8.98272         0.021070     -0.059737      0.001349
      4.51872      1.52864     10.58621         0.004605     -0.003446     -0.014734
      3.10201      3.04024     12.09573        -0.002888     -0.001898     -0.016957
      3.10127      3.03427      3.01986         0.035563      0.011076     -0.042364
      4.57779      4.57679      4.50129        -0.005766     -0.000660      0.011440
      4.54406      4.58305      7.56127        -0.037897     -0.030649     -0.049538
      3.00186      3.01544      8.97507         0.003701      0.052839      0.006152
      4.55801      4.56567     10.57384         0.003602      0.016345     -0.009054
      3.16273      6.02736      0.01541        -0.007148      0.008616     -0.012578
      3.13894      6.03170      2.89267         0.019973      0.010946     -0.013357
      3.05527      6.06130      6.08753         0.011480     -0.010286      0.000601
      4.54577      7.53956      7.62083         0.001948     -0.005812     -0.003910
      3.03198      6.06267      9.08720        -0.001787      0.009539     -0.021370
      4.56468      7.57880     10.56485         0.006086      0.005788     -0.000145
      3.08872      9.05333     12.07976         0.000651     -0.004212     -0.010955
      4.55163     10.61900      1.49519         0.008816     -0.004614      0.001357
      3.08835      9.08600      2.93852         0.011749     -0.014394     -0.011622
      4.54136     10.65561      4.41500        -0.012784      0.014846     -0.002792
[...]
     10.56686      7.54126      7.57235         0.003946      0.006448     -0.012038
      9.05136      6.08437      9.06633        -0.004506      0.003800      0.010630
     10.54447      7.62937     10.55990        -0.003285      0.004489      0.006053
      9.04750      9.03096      0.02654         0.001907     -0.005167      0.005114
     10.60738     10.58638      1.46782        -0.003967     -0.007218     -0.004449
     10.57060     10.61621      4.53292         0.039618      0.037111      0.024728
      9.01698      9.04050      6.03668         0.017867      0.008342     -0.000057
      9.03238      9.03510      9.09440         0.000953      0.002967      0.001973
     10.62660     10.52093     10.64828        -0.005074     -0.006443     -0.010760
      1.52434     10.57854      1.48243         0.004149     -0.015764     -0.026688
      4.55691      7.57148      4.51696         0.005752     -0.000103      0.001890
     10.61743      1.48905     10.57636        -0.032775      0.003557      0.016112
     10.52173     10.55588      7.57794         0.025431      0.028613     -0.045320
      0.03257      5.93064     12.06507         0.004722     -0.011864     -0.013802
      7.53671      1.58602      7.59123        -0.028374      0.000835     -0.021976
    total drift:                                0.003206      0.003264      0.004461

  FREE ENERGIE OF THE ION-ELECTRON SYSTEM (eV)
  free  energy   TOTEN  =     -1142.13578673 eV

  energy  without entropy=    -1142.08915010  energy(sigma->0) =    -1142.12024119