 vasp.6.4.2 20Jul23 (build Sep 20 2024 16:56:05) complex
 executed on              LinuxNV date 2025.02.07  15:25:21
 OpenACC runtime initialized ...    4 GPUs detected

 INCAR:
   PREC = Accurate
   ENCUT = 520
   EDIFF = 1e-06
   ISMEAR = 1
   SIGMA = 0.2
   NSW = 0
   IBRION = -1
   LWAVE = .FALSE.
   LCHARG = .TRUE.
   LREAL = .FALSE.
   ALGO = Normal

 POTCAR:    PAW_PBE Cr_pv 02Aug2007
 POTCAR:    PAW_PBE Ti_pv 07Sep2000
 POTCAR:    PAW_PBE V_pv 07Sep2000
 POTCAR:    PAW_PBE W_sv 04Sep2015
 POTCAR:    PAW_PBE Zr_sv 04Jan2005
 POTCAR:    PAW_PBE Cr_pv 02Aug2007
   VRHFIN =Cr : p6d5s1

   TITEL  = PAW_PBE Cr_pv 02Aug2007
   POMASS =   51.996; ZVAL   =   12.000    mass and valenz
   ENMAX  =  265.681; ENMIN  =  199.261 eV

   TITEL  = PAW_PBE Ti_pv 07Sep2000
   POMASS =   47.880; ZVAL   =   10.000    mass and valenz
   ENMAX  =  222.335; ENMIN  =  166.751 eV

   TITEL  = PAW_PBE V_pv 07Sep2000
   POMASS =   50.941; ZVAL   =   11.000    mass and valenz
   ENMAX  =  263.673; ENMIN  =  197.755 eV

   TITEL  = PAW_PBE W_sv 04Sep2015
   POMASS =  183.850; ZVAL   =   14.000    mass and valenz
   ENMAX  =  223.057; ENMIN  =  167.293 eV

   TITEL  = PAW_PBE Zr_sv 04Jan2005
   POMASS =   91.224; ZVAL   =   12.000    mass and valenz
   ENMAX  =  229.898; ENMIN  =  172.424 eV

  PAW_PBE Cr_pv 02Aug2007               :
  PAW_PBE Ti_pv 07Sep2000               :
  PAW_PBE V_pv 07Sep2000                :
  PAW_PBE W_sv 04Sep2015                :
  PAW_PBE Zr_sv 04Jan2005               :

 POSCAR: Cr Ti V  W  Zr
  positions in direct lattice
  velocities in cartesian coordinates
 exchange correlation table for  LEXCH =        8
   RHO(1)=    0.500       N(1)  =     2000
   RHO(2)=  100.500       N(2)  =     4000

 ion  position               nearest neighbor table
   1  0.250  0.750  0.999-  65 2.52  36 2.53  22 2.54  28 2.55  59 2.55  30 2.56  53 2.56  58 2.56
                            90 2.99  29 2.99  60 3.01  52 3.03  37 3.03
   2  0.749  0.256  0.255-  77 2.49  67 2.51 104 2.52  98 2.54  69 2.57  75 2.59  99 2.60 124 2.60
                           111 2.97 105 2.99  76 3.02  15 3.04
   3  0.251  0.500  0.748-  26 2.65  57 2.65  49 2.66  18 2.66  51 2.66  20 2.66  58 2.66  28 2.67
                            50 2.94  64 2.96  88 2.99  27 3.00  52 3.02  56 3.05
   4  0.750  1.000  0.759- 121 2.68  73 2.68 102 2.69 123 2.69  71 2.69  97 2.69 101 2.69  95 2.69
                            11 2.94  72 2.95 100 2.99 122 3.00 107 3.00 127 3.25
   5  0.003  0.000  0.003-   6 2.57  30 2.59  12 2.59 123 2.62  36 2.62 102 2.62 117 2.68  98 2.77
                           127 3.09
   6  0.126  0.124  0.126-   7 2.55   5 2.57  37 2.58  46 2.59  39 2.60  44 2.61  15 2.62  13 2.62

   7  0.007  1.000  0.250-  32 2.53   8 2.55   6 2.55  98 2.57 117 2.58  30 2.61 119 2.62  99 2.68

   8  0.125  0.124  0.375-   7 2.55  41 2.56  15 2.58  39 2.60  48 2.60   9 2.61  17 2.61  46 2.63
                            10 2.92
   9  0.997  0.000  0.498- 121 2.58  34 2.58 119 2.59  10 2.59  99 2.60   8 2.61 101 2.61  32 2.62

  10  0.116  0.134  0.617-  17 2.45  19 2.57   9 2.59  48 2.60  50 2.70 126 2.72  41 2.72  11 2.73
                            18 2.91 101 2.91   8 2.92
  11  0.994  0.001  0.753- 121 2.59 123 2.59 101 2.60 102 2.61  12 2.65  36 2.70  10 2.73  34 2.73
                             4 2.94 126 3.08
  12  0.120  0.130  0.879-  13 2.52  44 2.58  19 2.58   5 2.59  37 2.64  11 2.65  50 2.68 126 2.75
                           102 2.89
  13  0.001  0.251  0.001- 102 2.50  12 2.52  20 2.57  14 2.59   6 2.62 124 2.63  98 2.64 108 2.66

  14  0.127  0.376  0.123-  52 2.57  54 2.57  44 2.59  13 2.59  46 2.61  21 2.62  23 2.63  15 2.66
                           124 3.05
  15  0.001  0.249  0.252-  98 2.38  16 2.57   8 2.58   6 2.62 104 2.63 124 2.65  14 2.66  99 2.67
                             2 3.04
  16  0.125  0.376  0.371-  15 2.57  23 2.59  25 2.60  48 2.60  46 2.61  56 2.61  54 2.61  17 2.65

[...]

  26  0.125  0.627  0.619-  64 2.58  62 2.59  25 2.60  33 2.61  56 2.61  35 2.64  27 2.65   3 2.65
                            34 2.92 125 3.02
  27  0.002  0.500  0.749- 108 2.60  20 2.60  18 2.60 115 2.61 125 2.63 106 2.63  26 2.65  28 2.66
                             3 3.00
  28  0.126  0.629  0.878-  29 2.55   1 2.55  21 2.58  64 2.60  52 2.61  35 2.62  27 2.66   3 2.67
                            36 2.90  22 2.92
  29  0.001  0.749  1.000- 123 2.49 117 2.50  36 2.53  28 2.55  22 2.57 110 2.60  30 2.62 115 2.63
                             1 2.99
  30  0.130  0.874  0.123-   1 2.56  60 2.58  37 2.58   5 2.59  39 2.61   7 2.61  29 2.62  31 2.64
                           117 2.89  59 2.89
  31  0.001  0.751  0.250- 117 2.33  24 2.57  32 2.59 112 2.62 110 2.63  30 2.64  22 2.65 119 2.70

[...]

  90  0.498  0.747  1.000-  91 2.49  97 2.50  58 2.52  65 2.54  53 2.56  83 2.62  89 2.63  59 2.63
                             1 2.99
  91  0.608  0.858  0.134-  92 2.32  90 2.49  68 2.59 118 2.60 127 2.69  66 2.70 116 2.72  83 2.86
                            59 2.88  93 2.88
  92  0.499  0.749  0.251-  91 2.32  55 2.55  61 2.60  85 2.63  83 2.64  53 2.65  59 2.65  93 2.71

[...]

  95  0.624  0.873  0.624- 100 2.55 120 2.57  94 2.58  96 2.59  70 2.60  72 2.60 122 2.61   4 2.69
                            63 2.91
  96  0.500  0.749  0.748-  97 2.56  63 2.56  87 2.59  95 2.59  57 2.60  89 2.60  65 2.61  58 2.62

[...]

  98  0.881  0.135  0.144-  15 2.38   2 2.54   7 2.57  13 2.64 127 2.70 103 2.74   5 2.77  99 2.78
                           124 2.92
  99  0.867  0.120  0.373-   2 2.60   9 2.60 105 2.61 100 2.61  15 2.67   7 2.68  17 2.68  98 2.78
                            69 2.80 119 2.84
 100  0.750  0.000  0.511- 121 2.53  95 2.55  71 2.55 101 2.55 119 2.60  69 2.61  99 2.61  93 2.61
                             4 2.99
 101  0.875  0.127  0.625- 100 2.55 105 2.56  17 2.58  19 2.59  11 2.60 107 2.61   9 2.61   4 2.69
                            10 2.91
 102  0.880  0.132  0.882-  13 2.50  19 2.57 103 2.59  11 2.61 107 2.62   5 2.62   4 2.69 127 2.89
                            12 2.89
 103  0.749  0.253  0.002- 102 2.59  75 2.59  73 2.59 124 2.60  81 2.61 108 2.63  67 2.67  98 2.74
                           127 3.12
 104  0.873  0.371  0.378-   2 2.52  17 2.57 105 2.59 113 2.59  25 2.62  15 2.63 111 2.64  23 2.69
                           124 3.03
 105  0.750  0.247  0.503-  71 2.55 101 2.56 106 2.59 104 2.59  77 2.59  79 2.60  69 2.60  99 2.61
                             2 2.99
 106  0.874  0.373  0.625-  19 2.58 105 2.59 114 2.60  17 2.61 107 2.61 113 2.62  27 2.63  25 2.66
                           125 3.04
 107  0.750  0.249  0.753- 108 2.58  81 2.59  71 2.61 101 2.61 106 2.61  73 2.62 102 2.62  79 2.63
                             4 3.00
 108  0.874  0.377  0.872- 114 2.58  19 2.58 107 2.58  27 2.60 109 2.62  21 2.62 103 2.63  13 2.66
                           124 3.07
 109  0.749  0.501  0.998-  83 2.58  89 2.58 115 2.59  81 2.60 108 2.62 110 2.62  75 2.63 124 2.64

 110  0.875  0.625  0.124- 116 2.56 118 2.57  23 2.60  29 2.60  21 2.61 109 2.62  31 2.63 111 2.63
                           117 2.86 124 2.99
 111  0.749  0.502  0.254-  85 2.57 112 2.57  83 2.60  77 2.61  75 2.62 124 2.63 110 2.63 104 2.64
                           118 2.90   2 2.97
 112  0.874  0.626  0.375- 118 2.55 111 2.57  33 2.60  25 2.61  31 2.62  23 2.62 113 2.62 120 2.62
                           125 3.00
 113  0.749  0.498  0.499-  85 2.58  77 2.59 104 2.59  79 2.59 112 2.62 106 2.62  87 2.62 125 2.62

 114  0.749  0.499  0.748-  81 2.58  79 2.58 108 2.58  89 2.58 106 2.60  87 2.61 125 2.62 115 2.62

 115  0.875  0.623  0.874- 109 2.59  21 2.59 116 2.59  27 2.61 122 2.61 114 2.62  29 2.63  35 2.63
                           125 3.01
 116  0.750  0.744  0.001- 110 2.56  83 2.58 115 2.59  89 2.62  97 2.62 123 2.63  91 2.72 117 2.74
                           127 3.06
 117  0.891  0.861  0.135-  31 2.33  29 2.50   7 2.58 118 2.61   5 2.68 127 2.69 116 2.74 110 2.86
                           119 2.87  30 2.89
 118  0.750  0.743  0.249- 112 2.55 110 2.57  85 2.58  83 2.59  91 2.60 117 2.61  93 2.65 119 2.66
                           111 2.90
 119  0.868  0.885  0.371-   9 2.59 100 2.60   7 2.62 120 2.62 118 2.66  31 2.70  33 2.71  93 2.83
                            99 2.84 117 2.87
 120  0.749  0.754  0.498-  95 2.57  93 2.60  85 2.60 121 2.61 112 2.62 119 2.62 125 2.65  87 2.65

 121  0.876  0.876  0.624- 100 2.53   9 2.58  11 2.59  33 2.61 120 2.61  35 2.61 122 2.64   4 2.68
                            34 2.91 125 3.03
 122  0.749  0.752  0.752-  89 2.59  95 2.61 115 2.61  97 2.62 123 2.63 121 2.64 125 2.65  87 2.65
                             4 3.00
 123  0.882  0.868  0.880-  29 2.49  35 2.56  11 2.59   5 2.62 116 2.63 122 2.63   4 2.69 127 2.86
                            36 2.92
 124  0.874  0.377  0.127-   2 2.60 103 2.60  23 2.60 111 2.63  13 2.63 109 2.64  21 2.65  15 2.65
                            98 2.92 110 2.99  75 3.00 104 3.03  14 3.05 108 3.07
 125  0.874  0.625  0.624- 114 2.62 113 2.62  35 2.63  27 2.63  33 2.64 120 2.65 122 2.65  25 2.65
                           112 3.00 115 3.01  87 3.02  26 3.02 121 3.03 106 3.04
 126  0.250  0.002  0.742-  10 2.72  42 2.72  34 2.73  63 2.74  43 2.74  36 2.75  12 2.75  65 2.75
                            41 2.99  50 3.07  72 3.08  11 3.08  64 3.09  37 3.11
 127  0.748  0.996  0.029-  91 2.69 117 2.69  98 2.70  67 2.71  97 2.85 123 2.86  73 2.88 102 2.89
                           116 3.06  66 3.06   5 3.09 103 3.12   4 3.25

  LATTYP: Found a triclinic cell.
 ALAT       =    17.0358975283
 B/A-ratio  =     0.7070015846
 C/A-ratio  =     0.7071772766
 COS(alpha) =     0.0000417821
 COS(beta)  =     0.0004596508
 COS(gamma) =     0.7064723174

  Lattice vectors:

 A1 = ( -12.0398988670, -12.0524945360,  -0.0039149010)
 A2 = ( -12.0444057020,   0.0045050720,  -0.0002512580)
 A3 = (  -0.0002534140,  -0.0036608590, -12.0473990590)

Analysis of symmetry for initial positions (statically):
 Subroutine PRICEL returns:
 Original cell was already a primitive cell.

 Routine SETGRP: Setting up the symmetry group for a
 triclinic supercell.

 Subroutine GETGRP returns: Found  1 space group operations
 (whereof  1 operations were pure point group operations)
 out of a pool of  2 trial point group operations.

The static configuration has the point symmetry C_1 .

Analysis of symmetry for dynamics (positions and initial velocities):
 Subroutine PRICEL returns:
 Original cell was already a primitive cell.

 Routine SETGRP: Setting up the symmetry group for a
 triclinic supercell.

 Subroutine GETGRP returns: Found  1 space group operations
 (whereof  1 operations were pure point group operations)
 out of a pool of  2 trial point group operations.

The dynamic configuration has the point symmetry C_1 .

 Subroutine INISYM returns: Found  1 space group operations
 (whereof  1 operations are pure point group operations),
 and found     1 'primitive' translations

                                     Primitive cell

  volume of cell :    1749.5156

  direct lattice vectors                    reciprocal lattice vectors
[...]
     0.000253414  0.003660859 12.047399059    -0.000001741 -0.000025223  0.083005476

  length of vectors
    12.044406547 12.057001007 12.047399618     0.083026115  0.082939403  0.083005480

 FORCES acting on ions
    electron-ion (+dipol)            ewald-force                    non-local-force                 convergence-correction
   -.645E+01 -.345E+02 0.441E+02   0.644E+01 0.344E+02 -.440E+02   0.163E-01 0.852E-01 -.104E+00   -.131E-01 0.131E-01 0.667E-02
   0.200E+02 0.222E+03 0.898E+01   -.202E+02 -.222E+03 -.852E+01   0.992E-01 -.368E+00 -.449E+00   0.148E-01 -.880E-02 -.594E-02
   -.383E+01 0.122E+02 0.171E+02   0.380E+01 -.122E+02 -.171E+02   0.464E-01 0.113E-01 0.340E-01   -.153E-01 0.394E-02 -.215E-02
   0.563E+01 0.234E+01 -.902E+02   -.564E+01 -.238E+01 0.897E+02   0.766E-02 0.553E-01 0.455E+00   0.496E-02 -.136E-01 0.106E-01
   0.146E+03 -.153E+02 0.759E+01   -.146E+03 0.153E+02 -.746E+01   0.150E+00 -.596E-02 -.125E+00   0.491E-02 -.923E-02 -.175E-02
   0.333E+02 0.173E+02 0.194E+02   -.331E+02 -.169E+02 -.194E+02   -.181E+00 -.437E+00 -.156E-01   0.101E-01 -.524E-03 -.333E-02
   0.187E+03 0.721E+01 0.125E+02   -.187E+03 -.713E+01 -.123E+02   -.394E+00 -.599E-01 -.219E+00   0.294E-02 -.149E-01 -.182E-02
   0.210E+02 0.104E+02 -.274E+02   -.207E+02 -.102E+02 0.275E+02   -.373E+00 -.232E+00 -.115E+00   0.796E-02 0.453E-02 -.287E-02
   0.214E+02 0.461E-01 -.695E+01   -.216E+02 0.175E-01 0.669E+01   0.196E+00 -.478E-01 0.264E+00   0.445E-02 -.157E-01 -.442E-02
   -.693E+02 0.868E+02 -.772E+02   0.689E+02 -.864E+02 0.768E+02   0.369E+00 -.367E+00 0.354E+00   0.179E-02 -.145E-02 -.756E-04
   -.155E+02 -.417E+01 -.128E+02   0.158E+02 0.414E+01 0.128E+02   -.240E+00 0.481E-01 -.693E-01   0.525E-02 -.131E-01 0.738E-02
   -.357E+02 0.749E+02 0.829E+02   0.352E+02 -.743E+02 -.824E+02   0.511E+00 -.592E+00 -.543E+00   -.200E-03 -.649E-02 0.502E-02
   0.198E+02 0.789E+02 0.191E+02   -.197E+02 -.787E+02 -.188E+02   -.189E+00 -.202E+00 -.280E+00   0.105E-01 0.148E-02 0.171E-02
   -.293E+01 0.272E+02 -.351E+01   0.284E+01 -.273E+02 0.369E+01   0.967E-01 0.850E-01 -.187E+00   -.215E-02 0.105E-02 0.518E-02
   -.182E+02 0.566E+02 -.404E+02   0.193E+02 -.561E+02 0.411E+02   -.109E+01 -.528E+00 -.705E+00   0.165E-01 0.774E-02 -.169E-02
   -.785E+01 0.174E+02 -.290E+02   0.802E+01 -.172E+02 0.292E+02   -.169E+00 -.117E+00 -.235E+00   0.231E-02 0.514E-02 -.200E-02
   0.607E+01 0.335E+02 0.124E+02   -.654E+01 -.332E+02 -.132E+02   0.453E+00 -.298E+00 0.752E+00   0.167E-01 0.715E-02 -.770E-02
   -.540E+02 0.822E-01 -.385E+02   0.538E+02 -.441E+00 0.382E+02   0.163E+00 0.352E+00 0.244E+00   0.762E-03 0.722E-02 -.606E-02
   -.241E+02 0.567E+02 0.186E+01   0.241E+02 -.565E+02 -.183E+01   0.151E-01 -.237E+00 -.395E-01   0.877E-02 -.135E-03 0.805E-02
   -.458E+02 0.776E+01 0.630E+02   0.457E+02 -.808E+01 -.628E+02   0.103E+00 0.327E+00 -.227E+00   -.440E-02 0.150E-02 0.331E-02
   -.102E+02 -.703E+01 0.295E+02   0.103E+02 0.715E+01 -.295E+02   -.764E-01 -.131E+00 0.212E-01   0.215E-02 0.742E-02 0.982E-02
   0.427E+02 0.135E+02 -.355E+02   -.427E+02 -.136E+02 0.357E+02   0.211E-01 0.144E+00 -.209E+00   -.140E-01 0.641E-02 0.631E-02
   -.158E+02 -.217E+02 -.300E+02   0.160E+02 0.219E+02 0.302E+02   -.220E+00 -.213E+00 -.225E+00   0.570E-02 0.138E-01 0.121E-02
   0.589E+01 -.113E+02 -.346E+02   -.584E+01 0.111E+02 0.351E+02   -.344E-01 0.178E+00 -.460E+00   -.150E-01 0.159E-02 -.268E-02
   -.258E+02 0.119E+02 0.119E+01   0.257E+02 -.121E+02 -.144E+01   0.135E-01 0.122E+00 0.264E+00   0.910E-02 0.117E-01 -.122E-01
   -.480E+02 0.145E+02 -.329E+02   0.476E+02 -.143E+02 0.325E+02   0.347E+00 -.209E+00 0.369E+00   -.689E-02 0.211E-02 -.305E-02
   -.674E+02 0.120E+02 -.372E+01   0.677E+02 -.120E+02 0.400E+01   -.391E+00 0.545E-01 -.277E+00   0.800E-02 0.890E-02 0.110E-02
   -.630E+01 0.392E+02 0.942E+02   0.628E+01 -.391E+02 -.941E+02   0.229E-01 -.102E+00 -.129E+00   -.713E-02 0.605E-02 -.107E-03
   0.708E+02 -.521E+02 0.720E+01   -.708E+02 0.515E+02 -.716E+01   -.228E-01 0.636E+00 -.490E-01   -.199E-02 0.691E-03 0.739E-02
   0.630E+02 -.573E+02 -.145E+02   -.631E+02 0.570E+02 0.145E+02   0.806E-01 0.249E+00 -.304E-01   -.320E-03 -.655E-02 -.146E-02
   0.442E+02 -.420E+02 -.474E+02   -.432E+02 0.409E+02 0.485E+02   -.101E+01 0.107E+01 -.111E+01   -.571E-02 -.690E-02 0.137E-02
   0.326E+02 -.136E+02 -.281E+02   -.321E+02 0.134E+02 0.284E+02   -.404E+00 0.246E+00 -.296E+00   -.735E-02 -.115E-01 -.444E-02
   0.173E+02 -.478E+02 0.411E+02   -.177E+02 0.477E+02 -.419E+02   0.381E+00 0.105E+00 0.841E+00   -.223E-02 -.395E-02 -.898E-02
   -.616E+02 -.970E+02 -.685E+02   0.613E+02 0.966E+02 0.680E+02   0.297E+00 0.375E+00 0.470E+00   -.807E-02 -.737E-02 0.242E-02
   -.190E+02 -.640E+02 -.849E+01   0.191E+02 0.638E+02 0.880E+01   -.105E+00 0.179E+00 -.312E+00   -.599E-03 0.433E-02 0.461E-03
   0.386E+01 -.119E+03 0.108E+03   -.429E+01 0.118E+03 -.107E+03   0.436E+00 0.581E+00 -.566E+00   -.305E-02 -.420E-03 0.277E-02
   -.427E+01 -.349E+02 0.961E+02   0.429E+01 0.353E+02 -.962E+02   -.210E-01 -.329E+00 0.102E+00   0.146E-02 -.433E-02 0.485E-02
   -.435E+02 0.172E+02 0.191E+02   0.433E+02 -.167E+02 -.191E+02   0.176E+00 -.500E+00 -.989E-02   -.112E-01 -.939E-02 -.653E-02
   -.412E+01 -.103E+02 -.889E+01   0.406E+01 0.103E+02 0.876E+01   0.631E-01 -.197E-02 0.135E+00   -.351E-02 -.193E-02 -.107E-01
   -.314E+02 0.112E+02 -.273E+02   0.311E+02 -.110E+02 0.274E+02   0.355E+00 -.229E+00 -.126E+00   -.233E-01 0.806E-04 -.127E-01
   -.287E+01 -.562E+01 -.120E+03   0.287E+01 0.560E+01 0.120E+03   0.155E-01 0.200E-01 -.285E+00   -.132E-01 -.309E-02 -.552E-02
   0.632E+02 0.853E+02 -.763E+02   -.628E+02 -.850E+02 0.759E+02   -.394E+00 -.327E+00 0.383E+00   -.172E-01 -.433E-02 0.685E-02
   0.283E+02 0.741E+02 0.823E+02   -.277E+02 -.734E+02 -.817E+02   -.589E+00 -.678E+00 -.578E+00   -.495E-02 -.138E-01 0.117E-01
   -.391E+01 0.329E+02 0.497E+02   0.392E+01 -.328E+02 -.496E+02   0.635E-02 -.916E-01 -.964E-01   -.787E-02 -.806E-02 0.102E-01
   -.139E+02 0.261E+02 -.229E+01   0.139E+02 -.261E+02 0.246E+01   -.132E-01 0.186E-01 -.178E+00   -.210E-01 -.943E-02 0.383E-02
   -.242E+01 0.217E+02 -.183E+02   0.240E+01 -.218E+02 0.184E+02   0.313E-01 0.598E-01 -.166E+00   -.926E-02 0.746E-03 -.238E-02
   0.128E+00 0.145E+02 -.317E+02   -.276E+00 -.144E+02 0.320E+02   0.177E+00 -.149E+00 -.300E+00   -.284E-01 -.995E-03 -.466E-02
   -.418E+01 0.287E+02 -.497E+02   0.418E+01 -.286E+02 0.497E+02   0.697E-02 -.143E+00 0.819E-01   -.160E-01 0.519E-02 -.125E-01
   0.465E+02 -.808E+00 -.385E+02   -.462E+02 0.459E+00 0.383E+02   -.186E+00 0.346E+00 0.267E+00   -.232E-01 0.369E-02 -.862E-03
   -.417E+01 0.680E+02 0.169E+02   0.418E+01 -.682E+02 -.169E+02   -.416E-02 0.206E+00 -.319E-01   -.111E-01 -.160E-02 0.415E-02
   0.374E+02 0.436E+01 0.648E+02   -.373E+02 -.465E+01 -.646E+02   -.881E-01 0.292E+00 -.163E+00   -.140E-01 -.493E-02 0.222E-02
   -.529E+01 0.341E+02 0.661E+02   0.526E+01 -.343E+02 -.664E+02   0.463E-01 0.205E+00 0.321E+00   -.174E-01 0.196E-03 0.586E-02
   -.503E+02 0.117E+02 -.331E+02   0.503E+02 -.118E+02 0.333E+02   0.494E-03 0.107E+00 -.193E+00   -.132E-01 0.110E-01 0.405E-02
   -.359E+01 0.103E+02 -.337E+02   0.354E+01 -.103E+02 0.340E+02   0.691E-01 -.228E-01 -.297E+00   -.206E-01 -.353E-02 0.326E-02
   -.131E+02 -.109E+02 -.368E+02   0.130E+02 0.107E+02 0.373E+02   0.988E-01 0.215E+00 -.494E+00   -.139E-01 0.435E-02 -.316E-02
   -.528E+01 0.678E+01 -.523E+02   0.527E+01 -.684E+01 0.525E+02   0.254E-01 0.614E-01 -.274E+00   -.204E-01 -.233E-03 -.648E-02
   0.373E+02 0.124E+02 -.308E+02   -.370E+02 -.122E+02 0.305E+02   -.185E+00 -.247E+00 0.357E+00   -.166E-01 0.267E-02 0.119E-02
   -.147E+01 0.418E+02 0.934E+02   0.146E+01 -.417E+02 -.934E+02   0.269E-01 -.683E-01 -.861E-01   -.155E-01 0.878E-02 -.174E-02
   -.741E+02 -.570E+02 -.140E+02   0.742E+02 0.568E+02 0.140E+02   -.144E+00 0.235E+00 -.491E-02   -.683E-02 0.806E-02 -.500E-02
   -.431E+01 -.221E+02 -.480E+02   0.431E+01 0.222E+02 0.484E+02   0.125E-01 -.461E-01 -.444E+00   -.149E-01 0.475E-02 -.468E-02
[...]
   0.191E+02 0.106E+02 -.120E+02   -.193E+02 -.107E+02 0.122E+02   0.141E+00 0.885E-01 -.252E+00   0.147E-01 0.131E-01 0.463E-02
   0.812E+01 -.467E+02 -.242E+01   -.802E+01 0.468E+02 0.249E+01   -.104E+00 -.125E+00 -.741E-01   0.103E-01 0.119E-01 0.392E-02
   0.899E+01 -.178E+03 -.241E+02   -.907E+01 0.179E+03 0.241E+02   0.661E-01 -.118E+00 -.458E-01   0.131E-01 0.752E-02 0.742E-02
   0.239E+03 -.226E+03 -.231E+02   -.239E+03 0.225E+03 0.219E+02   -.400E+00 0.459E+00 0.115E+01   0.280E-02 -.146E-01 0.305E-02
   0.110E+02 -.221E+03 0.112E+02   -.111E+02 0.221E+03 -.108E+02   0.659E-01 0.567E+00 -.356E+00   0.151E-01 0.513E-02 0.619E-03
   0.131E+03 -.114E+03 0.140E+03   -.130E+03 0.113E+03 -.139E+03   -.770E+00 0.108E+01 -.723E+00   0.411E-02 -.195E-01 -.717E-02
   0.169E+02 -.841E+02 0.460E+02   -.170E+02 0.842E+02 -.462E+02   0.777E-01 -.148E+00 0.208E+00   0.156E-01 0.237E-02 -.109E-01
   0.350E+02 -.685E+02 -.409E+02   -.347E+02 0.681E+02 0.411E+02   -.306E+00 0.420E+00 -.229E+00   0.973E-02 -.140E-01 0.281E-02
   0.177E+02 -.121E+03 -.353E+02   -.178E+02 0.121E+03 0.355E+02   0.132E+00 -.324E+00 -.189E+00   0.118E-01 0.772E-02 0.292E-02
   0.125E+03 -.145E+03 -.281E+02   -.125E+03 0.145E+03 0.277E+02   -.772E-01 0.249E+00 0.387E+00   0.579E-02 -.574E-02 0.127E-02
   -.101E+02 0.343E+02 0.353E+02   0.101E+02 -.342E+02 -.352E+02   -.356E-01 -.117E+00 -.105E+00   0.300E-01 0.163E-01 -.341E-02
   -.247E+01 -.436E+02 0.147E+01   0.251E+01 0.437E+02 -.155E+01   -.523E-01 -.710E-01 0.841E-01   0.155E-01 0.161E-01 -.610E-02
   -.410E+01 -.144E+02 0.149E+02   0.413E+01 0.143E+02 -.146E+02   -.201E-01 0.883E-01 -.340E+00   -.960E-02 -.636E-02 0.117E-01
   0.387E+01 0.359E+01 -.959E+02   -.387E+01 -.354E+01 0.931E+02   -.268E-02 -.321E-01 0.280E+01   -.155E-02 -.144E-01 0.150E-02
   -.526E-01 0.885E-01 0.785E+00   0.191E-11 0.950E-12 0.105E-11   0.518E-01 -.121E+00 -.785E+00   0.105E-01 0.319E-01 -.812E-02

 POSITION                                       TOTAL-FORCE (eV/Angst)
      3.00549      9.04916     12.04088         0.000245      0.000024      0.000011
      9.02220      3.08466      3.07197         0.000042      0.000793     -0.000011
      3.01893      6.03235      9.01729         0.000765      0.000811     -0.000731
      9.02531     12.05569      9.14824         0.000410      0.000367      0.000393
      0.03869      0.00037      0.04160         0.000333      0.000003      0.000508
      1.51933      1.49010      1.51401        -0.000450     -0.000504     -0.000037
      0.08417     12.05425      3.01542         0.001565     -0.000003     -0.000805
      1.50090      1.49547      4.51855        -0.000341     -0.000786     -0.000808
     12.00453      0.00318      6.00228        -0.000299      0.000049     -0.000004
      1.40272      1.61429      7.43277        -0.000061     -0.000277     -0.000426
     11.97288      0.00634      9.07293        -0.000255      0.000286     -0.000205
      1.44758      1.57491     10.58594        -0.000124     -0.000073      0.000354
      0.01137      3.02907      0.01601        -0.000380     -0.000653      0.000084
      1.52884      4.53463      1.48028        -0.000305      0.000067     -0.000204
      0.01633      2.99734      3.03543        -0.000575     -0.000836     -0.000832
      1.50723      4.52854      4.46913        -0.000331     -0.000182     -0.000721
     12.02393      3.00251      6.00979        -0.000816     -0.000838     -0.000359
      1.47005      4.52166      7.47479        -0.000295      0.000143     -0.000273
     12.02503      3.02931      9.04297        -0.000642     -0.000099     -0.001040
      1.47325      4.51809     10.56388         0.000112      0.000222     -0.000298
      0.01141      6.05006     12.02091        -0.000590     -0.000745      0.000305
      1.54612      7.56469      1.45252         0.000128     -0.000505      0.000593
      0.00673      6.04931      3.00715        -0.001071     -0.000813     -0.000758
      1.51348      7.54368      4.45263         0.000213     -0.000460      0.000601
      0.01937      6.02195      5.98294        -0.000247     -0.000688      0.000363
      1.50625      7.55611      7.46541         0.000533      0.000005      0.000353
      0.01707      6.02619      9.02733        -0.000295     -0.000358     -0.000844
      1.51505      7.58507     10.58426        -0.000069     -0.000011     -0.000414
      0.01278      9.02846     12.04889         0.000069      0.000671      0.000049
      1.55980     10.53709      1.48284        -0.000474      0.000714      0.000236
      0.00727      9.05251      3.01809         0.000492      0.000451     -0.000668
      1.49478     10.56984      4.50477         0.000571      0.000236     -0.000095
     12.02963      9.07113      5.98438        -0.000197     -0.000517      0.000587
      1.40766     10.46941      7.42862         0.000415     -0.000143      0.000348
      0.00674      9.05570      9.03086         0.000241     -0.000192     -0.000520
      1.49680     10.48237     10.60083        -0.000172      0.000475      0.000280
      3.00825      0.02577     12.04681         0.000058      0.000151      0.000039
      4.50118      1.48634      1.50981         0.000685      0.000156      0.000474
      3.01310     12.05516      3.03033        -0.000120     -0.000190      0.000126
      4.52762      1.48902      4.50964         0.000679     -0.000354     -0.000052
      3.01703      0.00098      5.94892         0.000263     -0.000566      0.000738
      4.61932      1.60336      7.42770         0.000635     -0.000090     -0.000553
      4.56428      1.57178     10.58376         0.000107      0.000094     -0.000304
      3.01004      3.00466      0.00689         0.000184      0.000389     -0.000150
      4.50640      4.52369      1.48286         0.000406      0.000712      0.000111
      3.01529      3.00729      2.98579         0.000168     -0.000357     -0.000400
      4.52338      4.52205      4.46382         0.000201      0.000052     -0.000497
      3.01416      3.04051      5.96989         0.000328     -0.000141     -0.000699
      4.55842      4.51883      7.47169         0.000720      0.000275     -0.000629
      3.01066      3.09353      9.01915         0.000341      0.000066     -0.000961
      4.55303      4.51281     10.56790        -0.000025      0.000664      0.000021
      3.01305      6.01682     12.03884         0.000636      0.000465      0.000218
      4.47651      7.54603      1.45550         0.000340     -0.000446      0.000674
      3.01461      6.03110      2.95517         0.000164     -0.000120      0.000119
      4.52265      7.53113      4.44828        -0.000138     -0.000304      0.000687
      3.01783      6.03450      5.96990         0.000446     -0.000103      0.000485
      4.55277      7.54752      7.46792         0.000076      0.000305      0.000214
      4.51299      7.57546     10.58746         0.000625      0.000307      0.000090
      4.45028     10.53195      1.48171         0.000790      0.000395      0.000621
      3.01369      9.04709      3.00002         0.000323     -0.000328      0.000553
[...]
      9.01736      6.00810      6.01216        -0.000926     -0.001041      0.000684
      9.01480      6.01210      9.01728        -0.000540     -0.000565     -0.000416
     10.53521      7.51652     10.53012        -0.000429     -0.000088      0.000186
      9.02752      8.96662      0.01484         0.000097      0.000369      0.000436
     10.72592     10.37619      1.63239         0.001517      0.000418      0.000336
      9.03190      8.95111      3.00752        -0.000329      0.000306     -0.000362
     10.44751     10.66649      4.47295         0.000498      0.000376     -0.000334
      9.01671      9.08908      6.00214        -0.000476     -0.000434      0.000946
     10.54302     10.56164      7.52130        -0.000148      0.000068      0.000255
      9.01744      9.06079      9.06663        -0.000045     -0.000208      0.000132
     10.62380     10.46652     10.61108         0.000066     -0.000025      0.000939
     10.52518      4.53976      1.52930         0.000386      0.000693     -0.000829
     10.52715      7.53571      7.51961        -0.000486     -0.000654      0.000586
      3.00774      0.01994      8.94107         0.000095     -0.000727     -0.001085
      9.00456     12.00684      0.35339         0.001294      0.000589      0.000061
    total drift:                                0.009745     -0.000121     -0.008113

  FREE ENERGIE OF THE ION-ELECTRON SYSTEM (eV)
  free  energy   TOTEN  =     -1139.04797656 eV

  energy  without entropy=    -1138.95014373  energy(sigma->0) =    -1139.01536562