 vasp.6.4.2 20Jul23 (build Sep 20 2024 16:56:05) complex
 executed on              LinuxNV date 2025.02.03  23:47:36
 OpenACC runtime initialized ...    4 GPUs detected

 INCAR:
   PREC = Accurate
   ENCUT = 520
   EDIFF = 1e-06
   ISMEAR = 1
   SIGMA = 0.2
   NSW = 0
   IBRION = -1
   LWAVE = .FALSE.
   LCHARG = .TRUE.
   LREAL = .FALSE.
   ALGO = Normal

 POTCAR:    PAW_PBE Cr_pv 02Aug2007
 POTCAR:    PAW_PBE Ti_pv 07Sep2000
 POTCAR:    PAW_PBE V_pv 07Sep2000
 POTCAR:    PAW_PBE W_sv 04Sep2015
 POTCAR:    PAW_PBE Zr_sv 04Jan2005
 POTCAR:    PAW_PBE Cr_pv 02Aug2007
   VRHFIN =Cr : p6d5s1

   TITEL  = PAW_PBE Cr_pv 02Aug2007
   POMASS =   51.996; ZVAL   =   12.000    mass and valenz
   ENMAX  =  265.681; ENMIN  =  199.261 eV

   TITEL  = PAW_PBE Ti_pv 07Sep2000
   POMASS =   47.880; ZVAL   =   10.000    mass and valenz
   ENMAX  =  222.335; ENMIN  =  166.751 eV

   TITEL  = PAW_PBE V_pv 07Sep2000
   POMASS =   50.941; ZVAL   =   11.000    mass and valenz
   ENMAX  =  263.673; ENMIN  =  197.755 eV

   TITEL  = PAW_PBE W_sv 04Sep2015
   POMASS =  183.850; ZVAL   =   14.000    mass and valenz
   ENMAX  =  223.057; ENMIN  =  167.293 eV

   TITEL  = PAW_PBE Zr_sv 04Jan2005
   POMASS =   91.224; ZVAL   =   12.000    mass and valenz
   ENMAX  =  229.898; ENMIN  =  172.424 eV

  PAW_PBE Cr_pv 02Aug2007               :
  PAW_PBE Ti_pv 07Sep2000               :
  PAW_PBE V_pv 07Sep2000                :
  PAW_PBE W_sv 04Sep2015                :
  PAW_PBE Zr_sv 04Jan2005               :

 POSCAR: Cr Ti V  W  Zr
  positions in cartesian coordinates
 exchange correlation table for  LEXCH =        8
   RHO(1)=    0.500       N(1)  =     2000
   RHO(2)=  100.500       N(2)  =     4000

 ion  position               nearest neighbor table
   1  0.250  0.749  0.001-  65 2.50  36 2.50  22 2.53  53 2.54  28 2.56  58 2.57  30 2.59  59 2.60
                            60 2.99  52 3.01  37 3.03  90 3.04  29 3.04  64 3.04
   2  0.749  0.252  0.253-  67 2.51  77 2.56  98 2.57  69 2.58 104 2.58  99 2.60 124 2.62  75 2.63
                           118 2.95 111 2.96 105 2.99  76 3.02  15 3.05
   3  0.251  0.499  0.748-  26 2.65  49 2.65  51 2.65  18 2.65  57 2.66  20 2.66  58 2.66  28 2.67
                            64 2.94  50 2.96  27 3.02  88 3.03  56 3.03  52 3.03
   4  0.750  0.999  0.749- 121 2.64 101 2.65  71 2.65  95 2.65 102 2.74  97 2.74  73 2.74 123 2.74
                            72 2.98  11 2.98 100 3.01 122 3.01 107 3.01 127 3.09
   5  0.002  0.998  0.003-  30 2.56   6 2.58  12 2.60  36 2.60 123 2.64 102 2.66  98 2.70 117 2.88
                           127 3.06
   6  0.125  0.123  0.126-  37 2.57  39 2.58   5 2.58  46 2.60  15 2.61  13 2.61   7 2.62  44 2.63

   7  0.997  0.999  0.250-  98 2.56  32 2.58   8 2.61   6 2.62  99 2.62 117 2.62 119 2.63  30 2.64

[...]

  10  0.119  0.131  0.617-  17 2.50   9 2.58  48 2.58  19 2.59  11 2.69  41 2.69  50 2.69 126 2.73
                            18 2.91
  11  0.998  0.999  0.750- 123 2.56 121 2.58 102 2.59 101 2.62  34 2.68  10 2.69  12 2.69  36 2.75
                             4 2.98 126 3.05
  12  0.123  0.129  0.881-  13 2.53  44 2.57   5 2.60  19 2.61  37 2.65  50 2.67  11 2.69 126 2.73
                           102 2.86
  13  0.001  0.250  0.002- 102 2.52  12 2.53  20 2.57  14 2.61   6 2.61  98 2.62 124 2.64 108 2.65

  14  0.127  0.376  0.125-  52 2.58  44 2.59  46 2.59  54 2.59  13 2.61  21 2.61  15 2.64  23 2.66
                           124 3.05
  15  0.002  0.249  0.252-  98 2.52   8 2.56  16 2.58   6 2.61  99 2.62  14 2.64 124 2.64 104 2.65
                             2 3.05
  16  0.124  0.376  0.373-  15 2.58  25 2.60  48 2.60  56 2.61  23 2.61  54 2.61  17 2.62  46 2.62

[...]

  18  0.122  0.373  0.622-  17 2.57  19 2.58  50 2.60  48 2.60  25 2.60  27 2.63   3 2.65  56 2.66
                            10 2.91
  19  1.000  0.251  0.749- 102 2.48  18 2.58  10 2.59 106 2.60  20 2.60 101 2.61 108 2.61  12 2.61

[...]

  26  0.124  0.626  0.621-  64 2.58  62 2.60  25 2.60  35 2.61  33 2.61  56 2.62   3 2.65  27 2.66
                           125 3.01
  27  0.999  0.499  0.751- 108 2.58 115 2.59  20 2.61 125 2.63 106 2.63  18 2.63  26 2.66  28 2.66
                             3 3.02
  28  0.126  0.627  0.880-   1 2.56  21 2.57  52 2.59  29 2.59  64 2.60  35 2.61  27 2.66   3 2.67
                            36 2.89  22 2.91
  29  0.998  0.748  0.003- 123 2.51  36 2.54  22 2.57  28 2.59 115 2.60 110 2.61  30 2.61 117 2.64
                             1 3.04
  30  0.126  0.875  0.124-  31 2.55   5 2.56  37 2.57   1 2.59  60 2.60  39 2.61  29 2.61   7 2.64
                            36 2.89
  31  0.010  0.751  0.250- 117 2.47  24 2.53  32 2.54  30 2.55  22 2.58 112 2.62 110 2.65 119 2.67
                            60 2.89
  32  0.124  0.878  0.373-  31 2.54  41 2.56   7 2.58   9 2.59  39 2.59  33 2.61  60 2.61  62 2.63

[...]

  63  0.381  0.869  0.616-  94 2.49  62 2.57  70 2.58  96 2.60  72 2.68  41 2.68  64 2.70 126 2.72
                            95 2.91
  64  0.250  0.744  0.749-  26 2.58  28 2.60  58 2.60  57 2.60  65 2.66  36 2.67  63 2.70  34 2.70
                             3 2.94   1 3.04 126 3.07
  65  0.375  0.866  0.884-   1 2.50  90 2.54  66 2.61  96 2.63  37 2.65  64 2.66 126 2.75  72 2.75
                            97 2.88  58 2.89  59 2.89
  66  0.497  0.999  0.002-  59 2.56  38 2.58  43 2.59  65 2.61  73 2.66  97 2.66  67 2.75 127 3.03

[...]

  87  0.623  0.623  0.623-  86 2.57  88 2.58 120 2.58 113 2.60  96 2.61  94 2.62 114 2.63 122 2.64
                           125 3.02
  88  0.502  0.500  0.750-  89 2.56  87 2.58  81 2.59  79 2.60  57 2.62  51 2.62  49 2.63  58 2.66
                             3 3.03
  89  0.624  0.621  0.876- 116 2.54  88 2.56  82 2.57 109 2.58 114 2.60  90 2.61  96 2.63 122 2.64

  90  0.502  0.747  0.003-  97 2.51  65 2.54  53 2.56  58 2.58  83 2.61  89 2.61  59 2.62  91 2.66
                             1 3.04
  91  0.631  0.855  0.146-  92 2.46  68 2.64  90 2.66 118 2.69 116 2.70  93 2.74  83 2.74 127 2.78
                           117 2.88
  92  0.490  0.750  0.250-  91 2.46  55 2.52  61 2.54  59 2.55  53 2.58  85 2.61  83 2.66  93 2.67
                            60 2.89
  93  0.631  0.871  0.372- 118 2.58 120 2.59  94 2.61 100 2.61  68 2.63  70 2.67  92 2.67  91 2.74
                            85 2.85 119 2.87
  94  0.501  0.751  0.497-  63 2.49  95 2.57  57 2.58  55 2.60  93 2.61  85 2.61  87 2.62  61 2.62

  95  0.622  0.875  0.620- 120 2.53  94 2.57  70 2.58  72 2.60 100 2.60  96 2.64   4 2.65 122 2.66
                            63 2.91
  96  0.500  0.748  0.749-  97 2.46  57 2.57  63 2.60  87 2.61  58 2.62  89 2.63  65 2.63  95 2.64

  97  0.613  0.864  0.872-  96 2.46  90 2.51  72 2.57 122 2.59 116 2.64  66 2.66   4 2.74 127 2.78
                            65 2.88
  98  0.877  0.130  0.134-  15 2.52   7 2.56   2 2.57 118 2.59  13 2.62 103 2.68   5 2.70 127 2.73
                            99 2.92 124 2.98
  99  0.874  0.126  0.376- 118 2.52  17 2.58 100 2.59   9 2.59   2 2.60 105 2.61  15 2.62   7 2.62
                            98 2.92
 100  0.750  0.000  0.500- 121 2.59  99 2.59  69 2.60  95 2.60 101 2.61  71 2.61  93 2.61 119 2.62
                             4 3.01
 101  0.876  0.127  0.622-  17 2.57 105 2.58  19 2.61 100 2.61   9 2.61  11 2.62 107 2.63   4 2.65

 102  0.885  0.133  0.874-  19 2.48  13 2.52  11 2.59 107 2.61   5 2.66 103 2.67   4 2.74 127 2.83
                            12 2.86
 103  0.749  0.253  0.000-  81 2.59 108 2.60 124 2.62  75 2.63  67 2.63  73 2.65 102 2.67  98 2.68
                           127 3.11
 104  0.873  0.376  0.377- 113 2.58   2 2.58 111 2.58 105 2.59  25 2.59  17 2.59  23 2.65  15 2.65
                           124 3.01
 105  0.750  0.252  0.502- 106 2.56  71 2.57  79 2.58 101 2.58 104 2.59  69 2.60  99 2.61  77 2.61
                             2 2.99
 106  0.873  0.373  0.625- 105 2.56 107 2.59  19 2.60  17 2.61 114 2.61  27 2.63  25 2.65 113 2.66
                           125 3.02
 107  0.750  0.249  0.751- 106 2.59  73 2.60 108 2.60 102 2.61  79 2.61  71 2.62  81 2.62 101 2.63
                             4 3.01
 108  0.874  0.376  0.874-  27 2.58 114 2.58 107 2.60 103 2.60  19 2.61  21 2.64 109 2.64  13 2.65
                           124 3.05
 109  0.749  0.502  0.002-  89 2.58 115 2.58  75 2.60  83 2.60  81 2.61 124 2.62 110 2.64 108 2.64
                           116 2.91
 110  0.869  0.630  0.132- 116 2.59 111 2.61  29 2.61  23 2.62 109 2.64  31 2.65  21 2.74 117 2.74
                           112 2.82  83 2.89 124 3.06
 111  0.748  0.497  0.252-  77 2.54  75 2.57 104 2.58  85 2.58  83 2.58 112 2.59 124 2.59 110 2.61
                             2 2.96
 112  0.867  0.635  0.366- 111 2.59  31 2.62 120 2.63  33 2.64  23 2.64 113 2.67  25 2.78 110 2.82
                            85 2.84 119 2.84 125 3.11
 113  0.748  0.502  0.497-  77 2.57 104 2.58  87 2.60 125 2.61  79 2.61  85 2.64 106 2.66 112 2.67

 114  0.749  0.498  0.751-  81 2.57  79 2.58 108 2.58  89 2.60 106 2.61 115 2.62  87 2.63 125 2.63

 115  0.876  0.621  0.878- 116 2.52  21 2.56 109 2.58  27 2.59  29 2.60 114 2.62  35 2.64 122 2.66
                           125 3.06
 116  0.750  0.743  0.992- 115 2.52  89 2.54 110 2.59  83 2.61 123 2.64  97 2.64  91 2.70 117 2.71
                           122 2.91 109 2.91 127 3.05
 117  0.870  0.857  0.144-  31 2.47   7 2.62  29 2.64 118 2.68 116 2.71 110 2.74 119 2.75 127 2.77
                            91 2.88   5 2.88
 118  0.750  0.007  0.257-  99 2.52  69 2.52 119 2.58  93 2.58  98 2.59  67 2.62 117 2.68  91 2.69
                             2 2.95 127 3.03
 119  0.869  0.871  0.372- 118 2.58 120 2.60  33 2.60 100 2.62   7 2.63  31 2.67   9 2.68 117 2.75
                           112 2.84  93 2.87
 120  0.749  0.752  0.506-  95 2.53 121 2.56  87 2.58  93 2.59 125 2.59 119 2.60  85 2.61 112 2.63

 121  0.878  0.877  0.620-   9 2.56 120 2.56  11 2.58  33 2.58 100 2.59   4 2.64  35 2.66 122 2.69
                            34 2.91 125 3.05
 122  0.749  0.749  0.751-  97 2.59 123 2.61 125 2.63  89 2.64  87 2.64 115 2.66  95 2.66 121 2.69
                           116 2.91   4 3.01
 123  0.886  0.865  0.872-  35 2.46  29 2.51  11 2.56 122 2.61 116 2.64   5 2.64   4 2.74 127 2.79
                            36 2.88
 124  0.875  0.377  0.127- 111 2.59  23 2.61 109 2.62   2 2.62 103 2.62  21 2.63  13 2.64  15 2.64
                            98 2.98 104 3.01  75 3.03  14 3.05 108 3.05 110 3.06
 125  0.874  0.624  0.624- 120 2.59 113 2.61  25 2.61  27 2.63 114 2.63 122 2.63  35 2.64  33 2.65
                            26 3.01 106 3.02  87 3.02 121 3.05 115 3.06 112 3.11
 126  0.250  0.999  0.747-  63 2.72  34 2.72  12 2.73  42 2.73  10 2.73  43 2.73  65 2.75  36 2.75
                            72 3.04  11 3.05  41 3.06  64 3.07  50 3.08  37 3.10
 127  0.749  0.995  0.006-  98 2.73  67 2.75 117 2.77  91 2.78  97 2.78 123 2.79  73 2.82 102 2.83
                            66 3.03 118 3.03 116 3.05   5 3.06   4 3.09 103 3.11

  LATTYP: Found a triclinic cell.
 ALAT       =    17.0358975283
 B/A-ratio  =     0.7070015846
 C/A-ratio  =     0.7071772766
 COS(alpha) =     0.0000417821
 COS(beta)  =     0.0004596508
[...]
     0.000253414  0.003660859 12.047399059    -0.000001741 -0.000025223  0.083005476

  length of vectors
    12.044406547 12.057001007 12.047399618     0.083026115  0.082939403  0.083005480

 FORCES acting on ions
    electron-ion (+dipol)            ewald-force                    non-local-force                 convergence-correction
   -.512E+01 -.307E+02 0.289E+02   0.509E+01 0.305E+02 -.286E+02   0.233E-01 0.133E+00 -.294E+00   0.748E-02 0.150E-01 -.175E-02
   0.180E+02 0.481E+02 0.874E+01   -.181E+02 -.483E+02 -.838E+01   0.115E+00 0.128E+00 -.368E+00   0.954E-03 -.187E-01 0.794E-02
   -.424E+01 0.667E+01 0.194E+02   0.419E+01 -.665E+01 -.193E+02   0.360E-01 -.230E-01 -.107E+00   0.505E-02 0.425E-02 -.137E-01
   0.733E+01 0.123E+02 -.102E+03   -.734E+01 -.122E+02 0.102E+03   0.114E-01 -.451E-01 0.171E+00   -.233E-02 -.112E-01 -.975E-02
   0.129E+03 0.272E+02 0.228E+02   -.130E+03 -.271E+02 -.226E+02   0.254E+00 -.818E-01 -.162E+00   -.141E-01 -.131E-01 0.361E-02
   0.205E+02 0.188E+02 0.249E+02   -.207E+02 -.186E+02 -.248E+02   0.191E+00 -.207E+00 -.906E-01   -.530E-02 -.136E-01 0.689E-02
   0.555E+02 0.503E+02 0.389E+02   -.552E+02 -.503E+02 -.387E+02   -.268E+00 -.454E-02 -.148E+00   -.153E-01 -.110E-01 0.573E-02
   -.608E+01 0.947E+01 -.226E+02   0.600E+01 -.941E+01 0.227E+02   0.848E-01 -.502E-01 -.433E-01   -.137E-02 -.139E-01 0.117E-01
   0.686E+01 0.197E+02 -.265E+02   -.712E+01 -.197E+02 0.261E+02   0.261E+00 0.317E-01 0.369E+00   -.654E-02 -.607E-02 0.221E-02
   -.649E+02 0.724E+02 -.840E+02   0.645E+02 -.718E+02 0.835E+02   0.426E+00 -.551E+00 0.466E+00   0.186E-02 -.142E-01 -.803E-02
   -.210E+02 0.153E+01 -.332E+02   0.213E+02 -.142E+01 0.331E+02   -.245E+00 -.904E-01 0.158E+00   -.565E-02 -.999E-02 -.118E-01
   -.333E+02 0.800E+02 0.808E+02   0.325E+02 -.793E+02 -.803E+02   0.713E+00 -.649E+00 -.487E+00   -.170E-02 -.131E-01 -.919E-02
   0.771E+01 0.552E+02 0.262E+02   -.756E+01 -.550E+02 -.259E+02   -.149E+00 -.221E+00 -.334E+00   -.431E-02 -.112E-01 0.204E-02
   -.358E+01 0.203E+01 -.415E+01   0.342E+01 -.194E+01 0.432E+01   0.163E+00 -.876E-01 -.177E+00   -.379E-02 -.449E-02 0.783E-02
   -.361E+02 0.178E+02 -.135E+02   0.366E+02 -.177E+02 0.137E+02   -.443E+00 -.895E-01 -.216E+00   -.225E-02 -.132E-01 0.842E-02
   -.137E+02 -.729E+01 -.207E+02   0.137E+02 0.744E+01 0.207E+02   -.483E-01 -.152E+00 -.533E-01   0.319E-02 -.450E-02 0.861E-02
   -.172E+02 0.266E+01 -.120E+02   0.170E+02 -.233E+01 0.115E+02   0.133E+00 -.305E+00 0.444E+00   -.785E-04 -.167E-01 0.202E-02
   -.532E+02 -.274E+02 -.346E+02   0.530E+02 0.273E+02 0.343E+02   0.173E+00 0.835E-01 0.373E+00   0.653E-02 -.380E-02 -.474E-02
   -.289E+02 0.408E+02 0.435E+00   0.291E+02 -.404E+02 -.650E+00   -.169E+00 -.417E+00 0.227E+00   -.208E-02 -.138E-01 -.120E-01
   -.396E+02 -.665E+01 0.583E+02   0.394E+02 0.646E+01 -.581E+02   0.121E+00 0.196E+00 -.214E+00   0.188E-02 -.304E-02 -.113E-01
   0.816E+01 -.302E+02 0.694E+01   -.817E+01 0.303E+02 -.681E+01   0.265E-01 -.108E+00 -.130E+00   -.118E-01 0.718E-02 0.693E-03
   0.530E+02 0.171E+02 -.342E+02   -.525E+02 -.173E+02 0.343E+02   -.481E+00 0.219E+00 -.117E+00   -.500E-02 0.110E-01 0.679E-02
   0.769E+01 -.584E+02 -.232E+02   -.739E+01 0.586E+02 0.234E+02   -.289E+00 -.155E+00 -.120E+00   -.103E-01 0.888E-02 0.937E-02
   0.133E+02 -.330E+01 -.217E+02   -.127E+02 0.310E+01 0.219E+02   -.615E+00 0.188E+00 -.301E+00   0.860E-03 0.103E-01 0.104E-01
   -.120E+02 -.129E+02 0.210E+02   0.120E+02 0.127E+02 -.214E+02   -.308E-01 0.120E+00 0.409E+00   -.435E-02 0.992E-02 -.973E-03
   -.490E+02 0.207E+02 -.304E+02   0.487E+02 -.205E+02 0.299E+02   0.289E+00 -.174E+00 0.532E+00   0.377E-02 0.119E-01 -.314E-02
   -.706E+02 0.642E+01 -.261E+01   0.712E+02 -.654E+01 0.278E+01   -.607E+00 0.114E+00 -.164E+00   -.337E-02 0.896E-02 -.876E-02
   0.357E+00 0.300E+02 0.818E+02   -.534E+00 -.297E+02 -.815E+02   0.181E+00 -.283E+00 -.266E+00   -.485E-02 0.117E-01 -.135E-01
   0.975E+02 -.535E+02 -.303E+02   -.976E+02 0.532E+02 0.306E+02   0.202E+00 0.369E+00 -.376E+00   -.215E-01 0.183E-01 0.142E-02
   0.709E+02 -.370E+02 -.864E+00   -.704E+02 0.368E+02 0.866E+00   -.491E+00 0.148E+00 -.731E-02   -.112E-01 0.725E-02 0.530E-02
   0.130E+03 -.511E+01 -.634E+01   -.130E+03 0.463E+01 0.660E+01   0.458E-01 0.467E+00 -.266E+00   -.237E-01 0.157E-01 0.635E-02
   0.200E+02 0.382E+01 -.211E+02   -.196E+02 -.397E+01 0.213E+02   -.429E+00 0.136E+00 -.222E+00   -.165E-02 0.808E-02 0.115E-01
   0.218E+02 -.881E+01 0.415E+02   -.218E+02 0.861E+01 -.420E+02   0.425E-01 0.190E+00 0.554E+00   -.946E-02 0.124E-01 0.106E-02
   -.588E+02 -.663E+02 -.792E+02   0.583E+02 0.658E+02 0.786E+02   0.506E+00 0.517E+00 0.615E+00   -.249E-02 0.594E-02 -.574E-02
   -.247E+02 -.505E+02 -.485E+01   0.251E+02 0.502E+02 0.469E+01   -.396E+00 0.307E+00 0.169E+00   -.779E-02 0.148E-01 -.864E-02
   0.934E+01 -.108E+03 0.103E+03   -.999E+01 0.107E+03 -.102E+03   0.657E+00 0.559E+00 -.515E+00   -.903E-02 0.521E-02 -.944E-02
   -.416E+01 -.247E+02 0.100E+03   0.413E+01 0.250E+02 -.100E+03   0.191E-01 -.337E+00 0.280E+00   0.482E-02 -.499E-02 -.784E-03
   -.329E+02 0.201E+02 0.244E+02   0.331E+02 -.199E+02 -.243E+02   -.169E+00 -.233E+00 -.132E+00   0.878E-02 -.180E-01 0.621E-02
   -.477E+01 0.277E+01 -.205E+01   0.472E+01 -.285E+01 0.196E+01   0.339E-01 0.945E-01 0.758E-01   0.713E-02 -.531E-02 0.141E-01
   -.432E+01 0.102E+02 -.217E+02   0.445E+01 -.101E+02 0.218E+02   -.138E+00 -.362E-01 -.540E-01   0.515E-02 -.175E-01 0.135E-01
   -.330E+01 -.126E+01 -.113E+03   0.329E+01 0.140E+01 0.114E+03   0.596E-02 -.138E+00 -.543E+00   0.635E-02 -.368E-02 0.358E-02
   0.574E+02 0.705E+02 -.849E+02   -.570E+02 -.699E+02 0.844E+02   -.444E+00 -.568E+00 0.497E+00   0.276E-02 -.118E-01 -.919E-02
   0.233E+02 0.803E+02 0.809E+02   -.225E+02 -.796E+02 -.804E+02   -.757E+00 -.698E+00 -.495E+00   0.595E-02 -.121E-01 -.892E-02
   -.388E+01 0.267E+02 0.396E+02   0.386E+01 -.266E+02 -.393E+02   0.200E-01 -.130E+00 -.304E+00   0.241E-02 -.120E-01 -.257E-02
   -.974E+01 0.355E+01 -.460E+01   0.981E+01 -.347E+01 0.479E+01   -.718E-01 -.800E-01 -.198E+00   0.327E-02 -.187E-02 0.634E-02
   -.355E+01 0.329E+01 -.127E+02   0.353E+01 -.330E+01 0.128E+02   0.197E-01 0.177E-01 -.114E+00   0.173E-02 -.118E-01 0.139E-01
   0.661E+01 -.729E+01 -.216E+02   -.663E+01 0.743E+01 0.217E+02   0.219E-01 -.143E+00 -.638E-01   0.135E-02 0.176E-03 0.144E-01
   -.449E+01 0.108E+02 -.402E+02   0.449E+01 -.107E+02 0.399E+02   -.572E-02 -.861E-01 0.236E+00   0.618E-02 -.137E-01 0.388E-02
   0.477E+02 -.264E+02 -.359E+02   -.475E+02 0.263E+02 0.356E+02   -.154E+00 0.822E-01 0.376E+00   0.139E-02 -.216E-02 -.573E-02
   -.511E+01 0.562E+02 0.116E+02   0.510E+01 -.562E+02 -.116E+02   -.120E-02 0.955E-01 0.342E-01   0.563E-02 -.968E-02 -.147E-01
   0.318E+02 -.764E+01 0.606E+02   -.317E+02 0.743E+01 -.604E+02   -.129E+00 0.210E+00 -.223E+00   0.365E-02 -.306E-02 -.146E-01
   -.322E+01 0.270E+02 0.514E+02   0.318E+01 -.273E+02 -.517E+02   0.403E-01 0.298E+00 0.276E+00   0.395E-02 0.331E-02 -.402E-02
   -.573E+02 0.150E+02 -.338E+02   0.568E+02 -.152E+02 0.339E+02   0.452E+00 0.195E+00 -.129E+00   0.121E-01 0.148E-01 0.888E-02
   -.287E+01 -.199E+01 -.202E+02   0.284E+01 0.198E+01 0.202E+02   0.243E-01 0.487E-02 -.354E-01   0.532E-02 0.563E-02 0.153E-01
   -.187E+02 -.447E+01 -.237E+02   0.181E+02 0.426E+01 0.240E+02   0.584E+00 0.203E+00 -.302E+00   0.935E-02 0.119E-01 0.113E-01
   -.433E+01 0.274E+01 -.569E+02   0.429E+01 -.285E+01 0.573E+02   0.398E-01 0.976E-01 -.334E+00   0.834E-02 0.592E-02 0.412E-02
   0.385E+02 0.184E+02 -.296E+02   -.384E+02 -.183E+02 0.291E+02   -.992E-01 -.140E+00 0.505E+00   0.491E-02 0.906E-02 -.808E-02
   -.758E+01 0.300E+02 0.829E+02   0.777E+01 -.297E+02 -.826E+02   -.201E+00 -.275E+00 -.283E+00   0.990E-02 0.116E-01 -.118E-01
   -.837E+02 -.374E+02 -.687E+00   0.832E+02 0.372E+02 0.707E+00   0.523E+00 0.180E+00 -.277E-01   0.186E-01 0.509E-02 0.745E-02
   -.439E+01 -.176E+01 -.382E+02   0.436E+01 0.168E+01 0.386E+02   0.217E-01 0.644E-01 -.352E+00   0.967E-02 0.114E-01 0.143E-01
[...]
   0.184E+02 -.415E+01 -.156E+02   -.185E+02 0.415E+01 0.158E+02   0.121E+00 -.668E-02 -.223E+00   -.573E-02 0.101E-01 -.651E-02
   0.105E+02 -.451E+02 -.162E+02   -.103E+02 0.452E+02 0.155E+02   -.183E+00 -.144E+00 0.666E+00   -.105E-01 0.172E-01 -.339E-02
   0.810E+01 -.147E+03 -.103E+03   -.816E+01 0.147E+03 0.104E+03   0.588E-01 -.261E+00 -.226E+00   -.352E-02 0.208E-01 0.958E-02
   0.173E+03 0.112E+02 0.763E+01   -.172E+03 -.109E+02 -.829E+01   -.530E+00 -.383E+00 0.658E+00   -.181E-01 0.512E-02 0.429E-02
   0.116E+02 0.167E+03 0.111E+03   -.116E+02 -.167E+03 -.112E+03   0.218E-01 0.376E+00 0.387E+00   -.492E-02 -.270E-01 0.404E-02
   0.994E+02 0.910E+02 0.100E+03   -.986E+02 -.905E+02 -.998E+02   -.854E+00 -.521E+00 -.635E+00   -.148E-01 0.329E-02 -.956E-03
   0.189E+02 -.318E+02 0.116E+03   -.190E+02 0.318E+02 -.116E+03   0.148E+00 -.483E-01 0.341E+00   -.686E-02 0.126E-01 -.100E-01
   0.402E+02 -.470E+02 -.572E+02   -.398E+02 0.466E+02 0.576E+02   -.333E+00 0.409E+00 -.366E+00   -.610E-02 0.567E-02 -.690E-02
   0.208E+02 -.108E+03 -.406E+02   -.210E+02 0.108E+03 0.407E+02   0.208E+00 -.189E+00 -.491E-01   -.428E-02 0.126E-01 -.432E-02
   0.119E+03 -.128E+03 -.524E+02   -.118E+03 0.127E+03 0.518E+02   -.242E+00 0.244E+00 0.573E+00   -.786E-02 0.108E-02 -.507E-03
   -.217E+02 -.279E+02 0.389E+02   0.217E+02 0.275E+02 -.388E+02   -.992E-02 0.376E+00 -.128E+00   -.119E-02 0.305E-02 0.330E-02
   -.590E+01 -.353E+02 0.162E+02   0.601E+01 0.352E+02 -.158E+02   -.980E-01 0.459E-01 -.331E+00   -.103E-01 0.191E-01 -.627E-02
   -.443E+01 -.590E+01 0.440E+01   0.443E+01 0.594E+01 -.421E+01   0.344E-02 -.361E-01 -.172E+00   0.321E-02 -.449E-02 -.170E-01
   0.114E+02 0.562E+02 0.460E+02   -.113E+02 -.561E+02 -.460E+02   -.823E-01 -.117E+00 0.259E-02   -.380E-02 -.254E-01 0.109E-01
   -.224E+00 0.240E+00 -.365E+00   0.256E-11 -.391E-12 -.334E-12   0.224E+00 -.245E+00 0.356E+00   0.328E-02 0.633E-02 0.459E-02

 POSITION                                       TOTAL-FORCE (eV/Angst)
      3.00768      9.02765      0.01800        -0.000216      0.000183     -0.000419
      9.02274      3.03469      3.05410         0.000215      0.000481      0.000197
      3.01535      6.02400      9.01822        -0.000228     -0.000184      0.000083
      9.02545     12.04909      9.03100        -0.000155     -0.000178      0.000490
      0.02389     12.03645      0.03609         0.000564      0.000242      0.000191
      1.50893      1.48373      1.52205         0.000259      0.000617     -0.000019
     12.00623     12.04056      3.02116         0.000523     -0.000049      0.000473
      1.50235      1.50162      4.49465         0.000050      0.000554     -0.000124
     12.03837     -0.00134      5.99128         0.000091     -0.000113      0.000366
      1.43761      1.58143      7.43523         0.000042      0.000358      0.000477
     12.01042     12.04183      9.03537         0.000515      0.000354      0.000541
      1.47622      1.56237     10.61148         0.000146      0.000547      0.000477
      0.01451      3.01485      0.02024         0.000332     -0.000023     -0.000605
      1.53327      4.53195      1.50239        -0.000042     -0.000027     -0.000428
      0.02465      3.00646      3.03674        -0.000139      0.000445     -0.000077
      1.49717      4.53140      4.50057        -0.000425      0.000154     -0.000696
     12.02241      3.01625      6.00715        -0.000302      0.000403     -0.000090
      1.46833      4.49298      7.49820        -0.000498     -0.000029     -0.000453
     12.04144      3.02163      9.03047         0.000134      0.000272      0.000073
      1.47803      4.50791     10.57158        -0.000377     -0.000165     -0.000311
      0.01856      6.04508      0.00452         0.000242      0.000434     -0.000824
      1.53518      7.55793      1.46604         0.000087      0.000478     -0.000441
     12.03999      6.06780      3.02519        -0.000237      0.000088     -0.000704
      1.49396      7.53717      4.50234        -0.000563      0.000535     -0.000715
     12.03985      6.02563      5.99837        -0.000774      0.000141     -0.000814
      1.49234      7.55263      7.48826        -0.000734      0.000552     -0.000722
     12.03537      6.00936      9.05083        -0.000243      0.000157     -0.000620
      1.51051      7.55668     10.60047        -0.000241      0.000416     -0.000276
     12.01581      9.00913      0.04322         0.000637     -0.000089     -0.000255
      1.51221     10.54808      1.49488         0.000526     -0.000180      0.000271
      0.11720      9.05188      3.01652         0.000536     -0.000033     -0.000002
      1.49448     10.58846      4.49247         0.000094     -0.000371      0.000021
     12.03462      9.05904      5.97928        -0.000374      0.000244     -0.000332
      1.43410     10.47785      7.43240         0.000077     -0.000034      0.000397
      0.01297      9.02905      9.04679        -0.000037     -0.000006     -0.000270
      1.50471     10.44462     10.65328         0.000131     -0.000016      0.000577
      3.01511      0.00085      0.05355         0.000004      0.000247      0.000004
      4.51703      1.49096      1.51912         0.000094      0.000494      0.000292
      3.01608      0.00527      2.99846        -0.000049      0.000056      0.000108
      4.52279      1.50740      4.48574         0.000092      0.000344      0.000172
      3.00991     12.05669      5.93866        -0.000122     -0.000050      0.000842
      4.58845      1.57985      7.43046         0.000178      0.000263      0.000796
      4.54727      1.57122     10.61425         0.000005      0.000355      0.000594
      3.01246      3.01798      0.01307        -0.000138      0.000229     -0.000392
      4.50416      4.53519      1.49909         0.000162     -0.000357     -0.000227
      3.01497      3.01594      2.99298        -0.000106      0.000340     -0.000173
      4.52907      4.53658      4.49660        -0.000018     -0.000326     -0.000513
      3.01291      3.03378      5.99295        -0.000451      0.000380      0.000101
      4.56248      4.49978      7.49362        -0.000182     -0.000383     -0.000150
      3.01226      3.06881      9.03137        -0.000352      0.000089      0.000162
      4.54734      4.51189     10.57112        -0.000164     -0.000346     -0.000208
      3.01171      6.01813     12.04674        -0.000058      0.000043     -0.000538
      4.48392      7.55428      1.46130         0.000038      0.000194     -0.000348
      3.01083      6.04399      3.00544        -0.000026      0.000040     -0.000815
      4.53137      7.53086      4.49780         0.000253      0.000218     -0.000505
      3.01456      6.03841      5.99067        -0.000442     -0.000059     -0.000222
      4.56411      7.55189      7.48939         0.000013      0.000178     -0.000186
      4.51369      7.55472     10.59901        -0.000005      0.000063     -0.000298
      4.50554     10.54938      1.49351         0.000013     -0.000385      0.000352
      3.01122      9.06308      3.00585        -0.000103      0.000076     -0.000253
[...]
      9.01062      6.04616      5.98626        -0.000348     -0.000358     -0.000727
      9.01540      6.00539      9.04395        -0.000129     -0.000215     -0.000841
     10.54533      7.48648     10.57767         0.000276      0.000321     -0.000330
      9.02950      8.95560     11.95680         0.000224     -0.000478     -0.000250
     10.48014     10.33397      1.73955         0.000757     -0.000702      0.001016
      9.03695      0.08189      3.09738         0.000402      0.000093      0.001083
     10.46222     10.49415      4.48317         0.000634     -0.000460      0.000652
      9.01244      9.06658      6.10327         0.000001     -0.000208     -0.000218
     10.57024     10.57024      7.47736         0.000172     -0.000500      0.000376
      9.01993      9.03548      9.04879         0.000118     -0.000233     -0.000276
     10.67196     10.43062     10.51252         0.000338     -0.000070      0.000023
     10.53198      4.54046      1.53323        -0.000291     -0.000499      0.000351
     10.52912      7.51784      7.51751         0.000441      0.000609     -0.000120
      3.01134     12.04246      9.00007         0.000109      0.000308      0.000431
      9.01121     11.99466      0.07283         0.000343      0.000215     -0.000413
    total drift:                                0.003290      0.001501     -0.004780

  FREE ENERGIE OF THE ION-ELECTRON SYSTEM (eV)
  free  energy   TOTEN  =     -1139.00854802 eV

  energy  without entropy=    -1138.90641293  energy(sigma->0) =    -1138.97450299