 vasp.6.4.2 20Jul23 (build Sep 20 2024 16:56:05) complex
 executed on              LinuxNV date 2024.12.10  18:56:50
 OpenACC runtime initialized ...    4 GPUs detected

 INCAR:
   ENCUT = 520.000000
   POTIM = 0.200000
   SIGMA = 0.200000
   EDIFF = 1.00e-06
   EDIFFG = -1.00e-02
   ALGO = Normal
   GGA = PE
   PREC = Accurate
   IBRION = 2
   ISIF = 2
   ISMEAR = 1
   LORBIT = 11
   NELM = 100
   NSW = -1
   LCHARG = .TRUE.
   LWAVE = .FALSE.
   LREAL = .FALSE.
   NSIM = 32

 POTCAR:    PAW_PBE V_pv 07Sep2000
 POTCAR:    PAW_PBE Cr_pv 02Aug2007
 POTCAR:    PAW_PBE Ti_pv 07Sep2000
 POTCAR:    PAW_PBE V_pv 07Sep2000
   VRHFIN =V: p6 d4 s1

   TITEL  = PAW_PBE V_pv 07Sep2000
   POMASS =   50.941; ZVAL   =   11.000    mass and valenz
   ENMAX  =  263.673; ENMIN  =  197.755 eV

   TITEL  = PAW_PBE Cr_pv 02Aug2007
   POMASS =   51.996; ZVAL   =   12.000    mass and valenz
   ENMAX  =  265.681; ENMIN  =  199.261 eV

   TITEL  = PAW_PBE Ti_pv 07Sep2000
   POMASS =   47.880; ZVAL   =   10.000    mass and valenz
   ENMAX  =  222.335; ENMIN  =  166.751 eV

  PAW_PBE V_pv 07Sep2000                :
  PAW_PBE Cr_pv 02Aug2007               :
  PAW_PBE Ti_pv 07Sep2000               :

 POSCAR: V  Cr Ti
  positions in cartesian coordinates
 exchange correlation table for  LEXCH =        8
   RHO(1)=    0.500       N(1)  =     2000
   RHO(2)=  100.500       N(2)  =     4000

 ion  position               nearest neighbor table
   1  0.006  0.005  0.005-   2 2.53 115 2.54  28 2.56  22 2.57   5 2.59  24 2.59 114 2.60  95 2.61
                           118 2.95
   2  0.996  0.001  0.195- 110 2.53  96 2.53   1 2.53   6 2.53  29 2.59  23 2.59   3 2.61  18 2.61

   3  0.012  0.001  0.400- 111 2.61  30 2.61   2 2.61   7 2.62  19 2.62   4 2.63  97 2.71  18 2.83
                            29 2.83  25 2.87
   4  0.004  0.000  0.599-  25 2.55  98 2.56  20 2.57   8 2.58 112 2.59  31 2.59   3 2.63   5 2.66
                           116 3.01
   5  0.002  0.005  0.804- 116 2.51 118 2.52  27 2.58   1 2.59  21 2.61  26 2.61 113 2.63   4 2.66
                            98 2.88 115 2.95
   6  0.006  0.202  0.201-   2 2.53 115 2.54  28 2.56  34 2.56   9 2.59   7 2.59  99 2.60  95 2.61
                           119 2.95
   7  0.003  0.199  0.399- 100 2.58  96 2.58  29 2.59  35 2.59   6 2.59   3 2.62  10 2.62   8 2.63

   8  0.004  0.199  0.601-  30 2.49   4 2.58  97 2.58 116 2.62  11 2.62  36 2.62   7 2.63 122 2.67

   9  0.002  0.398  0.197- 117 2.51 119 2.52  33 2.58   6 2.59  10 2.61  39 2.61 102 2.63  14 2.66
                           101 2.88 115 2.95
  10  0.003  0.402  0.400-  34 2.57  15 2.59  40 2.59 103 2.60   9 2.61  99 2.62  11 2.62   7 2.62

  11  0.002  0.400  0.600-  35 2.58  41 2.60 104 2.60 100 2.61   8 2.62  10 2.62  16 2.63  12 2.68
                           122 3.00
  12  0.009  0.400  0.809-  37 2.54  36 2.54 117 2.58 116 2.58  11 2.68  17 2.68 124 2.70 122 2.70
                            32 2.88 123 3.00
  13  0.004  0.603  0.005-  43 2.49  14 2.58 105 2.58 117 2.62  17 2.62  37 2.62  24 2.63 124 2.67

[...]

  16  0.003  0.602  0.601-  46 2.59  40 2.59  15 2.60  20 2.60 103 2.61 108 2.61  17 2.63  11 2.63
                           104 2.91
  17  0.002  0.602  0.802-  42 2.58  41 2.60 104 2.60 109 2.61  13 2.62  21 2.62  16 2.63  12 2.68
                           124 3.00
  18  0.012  0.812  0.211-  43 2.61 111 2.61   2 2.61  24 2.62  19 2.62  14 2.63 105 2.71   3 2.83
                            23 2.83  44 2.87
  19  0.995  0.795  0.401-  20 2.55  15 2.55 106 2.55 112 2.55  25 2.61  44 2.61  18 2.62   3 2.62
                           107 2.90
  20  0.003  0.803  0.602-  19 2.55   4 2.57  26 2.57  45 2.58 113 2.59  21 2.59  16 2.60 107 2.63

[...]

  27  0.201  0.201  0.005- 115 2.54  58 2.58   5 2.58  22 2.58  28 2.59  32 2.59  31 2.60  52 2.60
                           116 2.94
  28  0.203  0.200  0.204-   1 2.56   6 2.56  53 2.58  59 2.58  27 2.59  33 2.59  29 2.59  23 2.59
                            54 2.91 115 3.00
  29  0.199  0.191  0.399-   7 2.59  28 2.59   2 2.59  54 2.62  30 2.62  60 2.63  34 2.71  55 2.81
                             3 2.83  23 2.85
  30  0.200  0.207  0.605-   8 2.49  55 2.54  35 2.55  61 2.57   3 2.61  31 2.61  29 2.62  25 2.64

[...]

  83  0.601  0.406  0.601-  79 2.50  88 2.55  54 2.59  60 2.60  84 2.62 109 2.63  82 2.64 104 2.64
                           124 3.00
  84  0.594  0.407  0.801-  61 2.49  89 2.52  80 2.60  83 2.62 105 2.64 121 2.66 124 2.69  55 2.76
                            85 2.91
  85  0.603  0.603  0.002-  86 2.58  62 2.59  90 2.59  89 2.60  61 2.61 105 2.61  80 2.62 111 2.62
                            84 2.91
  86  0.602  0.602  0.200-  85 2.58  91 2.58  87 2.59  81 2.59  57 2.60  63 2.60 112 2.60 106 2.60

[...]

 104  0.803  0.409  0.594- 103 2.52 108 2.52  17 2.60  11 2.60  78 2.64  83 2.64 124 2.70 122 2.70
                            16 2.91
 105  0.804  0.603  0.003- 106 2.57  13 2.58 110 2.60 109 2.61  85 2.61  84 2.64 101 2.68  18 2.71
                           124 3.00
 106  0.802  0.602  0.199-  19 2.55 105 2.57 111 2.59  14 2.59 102 2.60  80 2.60  86 2.60 107 2.62

[...]

 112  0.802  0.803  0.400-  19 2.55  97 2.57 111 2.58   4 2.59 113 2.60  92 2.60  86 2.60 107 2.62

 113  0.803  0.801  0.600-  98 2.53 108 2.56  20 2.59  93 2.60 112 2.60 114 2.61  87 2.61   5 2.63
                           118 2.99
 114  0.804  0.809  0.803- 118 2.43 109 2.60  94 2.60   1 2.60 113 2.61  21 2.62 110 2.62  88 2.66

 115  0.005  0.201  0.005-  33 2.54  27 2.54   6 2.54   1 2.54 118 2.61 119 2.61 116 2.62 117 2.62
                           123 2.78  95 2.94   5 2.95   9 2.95  32 2.95  28 3.00
 116  0.010  0.201  0.805-  31 2.43   5 2.51  32 2.51 123 2.53  98 2.58  12 2.58 115 2.62   8 2.62
                            27 2.94  36 2.99   4 3.01 118 3.05 117 3.06 122 3.16
 117  0.010  0.405  0.009-  38 2.43   9 2.51  32 2.51 123 2.53 101 2.58  12 2.58  13 2.62 115 2.62
                            33 2.94  37 2.99  14 3.01 119 3.05 116 3.06 124 3.16
 118  0.806  0.998  0.805- 114 2.43  95 2.50   5 2.52 123 2.52  98 2.58  75 2.59  93 2.60 115 2.61
                             1 2.95 113 2.99  94 3.00 116 3.05 119 3.05 120 3.17
 119  0.806  0.201  0.009-  99 2.43  95 2.50   9 2.52 123 2.52 101 2.58  75 2.58  76 2.60 115 2.61
                             6 2.95 102 2.99  72 3.00 117 3.05 118 3.05 121 3.17
 120  0.598  0.002  0.596-  50 2.64  69 2.66  74 2.66  93 2.68  98 2.72  75 2.72  79 2.74 123 2.81
                           122 2.97  92 2.99 121 3.00  70 3.01 118 3.17
 121  0.598  0.202  0.796-  50 2.64  56 2.66  84 2.66  76 2.68 101 2.72  75 2.72  79 2.74 123 2.81
                           124 2.97  80 2.99 120 3.00  51 3.01 119 3.17
 122  0.798  0.200  0.597- 100 2.66   8 2.67  74 2.69 104 2.70  98 2.70  12 2.70  79 2.81 123 2.81
                           120 2.97  78 3.00  11 3.00  97 3.00 124 3.00 116 3.16
 123  0.821  0.201  0.820- 119 2.52 118 2.52 117 2.53 116 2.53 115 2.78 124 2.81 122 2.81 120 2.81
                           121 2.81  75 3.00  12 3.00 101 3.00  98 3.00
 124  0.798  0.401  0.798- 109 2.66  13 2.67  84 2.69 104 2.70 101 2.70  12 2.70  79 2.81 123 2.81
                           121 2.97  83 3.00  17 3.00 105 3.00 122 3.00 117 3.16

  LATTYP: Found a base centered monoclinic cell.
 ALAT       =    15.0482117230
 B/A-ratio  =     1.4081981607
 C/A-ratio  =     1.6569313785
 COS(beta)  =    -0.9052205732

  Lattice vectors:

 A1 = (   4.3071057600,   6.1309426610, -10.6177469370)
 A2 = ( -12.9951470410,   0.0135483230,  -0.0223585750)
 A3 = (  13.0316404910,  -0.0404660660,  21.2572762500)

Analysis of symmetry for initial positions (statically):
 Subroutine PRICEL returns:
 Original cell was already a primitive cell.

 Routine SETGRP: Setting up the symmetry group for a
 base centered monoclinic supercell.

 Subroutine GETGRP returns: Found  1 space group operations
 (whereof  1 operations were pure point group operations)
 out of a pool of  4 trial point group operations.

The static configuration has the point symmetry C_1 .

Analysis of symmetry for dynamics (positions and initial velocities):
 Subroutine PRICEL returns:
 Original cell was already a primitive cell.

 Routine SETGRP: Setting up the symmetry group for a
 base centered monoclinic supercell.

 Subroutine GETGRP returns: Found  1 space group operations
 (whereof  1 operations were pure point group operations)
 out of a pool of  4 trial point group operations.

The dynamic configuration has the point symmetry C_1 .

 Subroutine INISYM returns: Found  1 space group operations
 (whereof  1 operations are pure point group operations),
 and found     1 'primitive' translations

                                     Primitive cell

  volume of cell :    1689.3617

  direct lattice vectors                    reciprocal lattice vectors
    12.995147041 -0.013548323  0.022358575     0.076899476  0.027363571  0.046994778
    -4.344442071 12.248515902 -0.022934774     0.000004010  0.081732338  0.047195846
    -4.307105760 -6.130942661 10.617746937    -0.000161924  0.000118924  0.094184924

  length of vectors
    12.995173338 12.996185776 12.995236356     0.094184943  0.094380205  0.094185138

  position of ions in fractional coordinates (direct lattice)
     0.006099678  0.005141741  0.004659326
     0.995808270  0.001467121  0.194695483
     0.011871747  0.001129902  0.399921989
     0.003825921  0.000102499  0.598836726
     0.001577958  0.004664009  0.803916475
     0.006107078  0.201822974  0.201331057
     0.002934933  0.199321146  0.398926984
     0.003749720  0.199003168  0.601102126
     0.001577430  0.398050618  0.197302115
     0.003103176  0.401605323  0.399664013
     0.001692461  0.399630537  0.600380442
     0.008908402  0.400461634  0.808864194
     0.003750762  0.603030192  0.005122226
     0.003830400  0.605379801  0.204104375
     0.003508364  0.601481421  0.400719326
     0.003134185  0.602465649  0.601049109
     0.001677521  0.601695897  0.802435988
     0.011865882  0.812315219  0.211116819
     0.995359325  0.794808958  0.400948899
     0.003487426  0.803170716  0.602395461
     0.003079805  0.803816078  0.801865643
     0.200898722  0.000990696  0.001134036
     0.199412152  0.000677411  0.208817085
     0.002946634  0.804387969  0.003999208
     0.198723627  0.000374196  0.593646227
     0.200594244  0.001289576  0.801496271
     0.200711969  0.200862685  0.004526300
     0.203348117  0.199661868  0.204046361
     0.199409499  0.190967373  0.399096089
     0.199788795  0.207309415  0.605462500
     0.196146491  0.200651398  0.802999581
     0.197710829  0.397671692  0.000394620
     0.200707648  0.396560580  0.200208905
     0.200915471  0.400149521  0.400280321
     0.200197163  0.401321122  0.598096576
     0.202988939  0.404288047  0.802233634
     0.203010877  0.601137738  0.999082472
     0.196148353  0.593519541  0.195856678
     0.200618690  0.599483269  0.399681165
     0.201569529  0.601005031  0.600418068
     0.200827749  0.601118369  0.800101598
     0.200198746  0.802476285  0.999267407
     0.199790410  0.794717148  0.192865741
     0.198728769  0.805453475  0.398716378
     0.200775189  0.801312743  0.599842784
[...]
   -.109E+03 -.105E+03 0.143E+03   0.109E+03 0.104E+03 -.142E+03   0.522E+00 0.511E+00 -.906E+00   -.868E-02 -.107E-01 0.130E-01
   -.616E+02 -.221E+02 0.496E+02   0.617E+02 0.223E+02 -.496E+02   -.829E-01 -.166E+00 0.731E-01   -.208E-02 -.103E-01 0.829E-02
   -.954E+02 0.948E+01 -.749E+01   0.954E+02 -.962E+01 0.772E+01   0.114E-01 0.145E+00 -.234E+00   0.809E-02 -.323E-02 0.270E-02
   -.485E+02 0.784E+02 -.850E+02   0.488E+02 -.785E+02 0.853E+02   -.289E+00 0.628E-01 -.274E+00   0.321E-02 0.808E-02 -.209E-02
   -.885E+02 0.196E+03 -.506E+02   0.881E+02 -.195E+03 0.507E+02   0.406E+00 -.124E+01 -.606E-01   -.494E-02 0.188E-01 -.256E-02
   -.105E+03 0.618E+02 0.855E+02   0.105E+03 -.621E+02 -.853E+02   0.477E-01 0.212E+00 -.226E+00   -.125E-01 0.128E-01 0.108E-01
   -.114E+03 -.179E+02 0.583E+02   0.114E+03 0.180E+02 -.581E+02   -.241E+00 -.180E+00 -.237E+00   -.311E-02 -.527E-03 0.633E-02
   -.627E+02 -.770E+02 -.680E+01   0.629E+02 0.774E+02 0.673E+01   -.216E+00 -.422E+00 0.653E-01   0.407E-02 0.402E-02 0.103E-02
   -.334E+02 -.343E+02 -.834E+02   0.335E+02 0.341E+02 0.835E+02   -.120E+00 0.238E+00 -.751E-01   0.341E-02 0.128E-03 0.846E-02
   -.144E+02 0.378E+02 -.511E+02   0.146E+02 -.380E+02 0.511E+02   -.195E+00 0.189E+00 -.555E-01   -.278E-02 0.613E-02 0.313E-02
   -.661E+01 0.310E+02 0.492E+00   0.633E+01 -.308E+02 -.569E-01   0.283E+00 -.236E+00 -.436E+00   -.588E-02 0.106E-01 0.333E-02
   -.115E+02 -.195E+02 0.454E+02   0.118E+02 0.195E+02 -.455E+02   -.298E+00 -.298E-01 0.121E+00   -.232E-02 0.934E-02 0.177E-03
   0.240E+02 -.446E+02 0.180E+01   -.240E+02 0.448E+02 -.157E+01   -.148E-01 -.230E+00 -.228E+00   0.373E-02 0.510E-02 -.721E-02
   0.134E+01 -.992E+02 -.825E+02   -.981E+00 0.993E+02 0.826E+02   -.358E+00 -.985E-01 -.964E-01   0.389E-02 -.535E-02 -.221E-02
   0.957E+01 -.724E+02 -.375E+02   -.953E+01 0.726E+02 0.375E+02   -.439E-01 -.191E+00 0.276E-01   0.125E-02 -.126E-01 0.427E-02
   0.926E+01 -.146E+02 -.950E+01   -.932E+01 0.148E+02 0.945E+01   0.660E-01 -.159E+00 0.466E-01   -.300E-02 -.379E-02 0.328E-02
   0.271E+02 0.363E+01 0.201E+02   -.270E+02 -.346E+01 -.201E+02   -.388E-01 -.179E+00 0.728E-01   -.875E-03 0.378E-02 -.281E-02
   0.127E+02 0.173E+02 -.233E+02   -.123E+02 -.175E+02 0.229E+02   -.375E+00 0.227E+00 0.368E+00   0.574E-02 0.234E-02 -.109E-01
   0.639E+02 -.575E+02 -.121E+03   -.638E+02 0.572E+02 0.121E+03   -.705E-01 0.296E+00 -.825E-01   0.107E-01 -.359E-02 -.176E-01
   0.309E+02 -.204E+03 -.286E+02   -.305E+02 0.203E+03 0.285E+02   -.324E+00 0.111E+01 0.129E+00   0.276E-02 -.187E-01 -.996E-03
   -.283E+02 -.683E+02 0.164E+02   0.284E+02 0.684E+02 -.163E+02   -.179E+00 -.687E-01 -.108E+00   -.199E-02 -.196E-01 0.966E-02
   -.117E+02 0.106E+00 0.160E+02   0.117E+02 0.109E-02 -.161E+02   -.173E-01 -.102E+00 0.145E+00   -.153E-03 -.586E-02 -.216E-03
   -.163E+02 -.300E+01 -.420E+01   0.163E+02 0.299E+01 0.431E+01   0.245E-01 0.120E-01 -.105E+00   0.202E-02 -.195E-02 0.273E-03
   0.222E+02 0.263E+02 -.778E+02   -.220E+02 -.264E+02 0.777E+02   -.223E+00 0.382E-01 0.103E+00   0.117E-01 0.804E-02 -.892E-02
   0.123E+03 0.116E+02 -.103E+03   -.122E+03 -.120E+02 0.103E+03   -.130E+01 0.393E+00 -.688E-01   0.167E-01 0.656E-02 -.444E-02
   -.556E+02 -.140E+03 0.355E+02   0.555E+02 0.140E+03 -.356E+02   0.351E-01 -.135E+00 0.106E+00   0.113E-01 -.109E-01 0.154E-01
   -.564E+02 -.787E+02 0.485E+02   0.568E+02 0.785E+02 -.481E+02   -.332E+00 0.160E+00 -.365E+00   0.148E-02 -.106E-01 0.110E-01
   -.632E+02 -.140E+02 0.324E+02   0.633E+02 0.140E+02 -.325E+02   -.145E+00 0.297E-02 0.260E-01   0.174E-02 -.306E-02 0.622E-02
   -.261E+02 0.450E+02 -.462E+02   0.264E+02 -.446E+02 0.461E+02   -.301E+00 -.464E+00 0.812E-01   0.619E-02 0.514E-02 -.923E-03
   0.320E+02 0.143E+03 -.561E+02   -.320E+02 -.143E+03 0.563E+02   0.386E-02 0.443E+00 -.252E+00   0.118E-01 0.194E-01 -.164E-02
   -.374E+02 0.125E+03 0.939E+02   0.377E+02 -.125E+03 -.927E+02   -.304E+00 -.313E+00 -.129E+01   0.516E-02 0.148E-01 0.980E-02
   -.122E+03 -.155E+02 0.743E+02   0.122E+03 0.156E+02 -.744E+02   0.270E+00 -.121E+00 0.873E-01   -.351E-03 -.483E-03 0.174E-01
   -.555E+02 -.138E+02 0.260E+02   0.556E+02 0.137E+02 -.261E+02   -.122E+00 0.545E-01 0.459E-01   0.274E-02 0.183E-02 0.560E-02
   -.396E+02 -.504E+01 -.295E+02   0.397E+02 0.498E+01 0.296E+02   -.877E-01 0.628E-01 -.108E+00   0.470E-02 -.564E-03 0.419E-02
   -.252E+02 0.444E+02 -.473E+02   0.255E+02 -.439E+02 0.473E+02   -.254E+00 -.498E+00 0.220E-01   0.377E-02 0.691E-02 0.208E-02
   -.436E+02 0.729E+02 0.306E+01   0.435E+02 -.728E+02 -.287E+01   0.284E-01 -.140E+00 -.204E+00   0.498E-03 0.161E-01 0.492E-02
[...]
   -.361E+02 -.810E+00 -.290E+02   0.360E+02 0.795E+00 0.289E+02   0.111E+00 0.174E-01 0.831E-01   -.127E-01 -.298E-02 -.868E-02
   0.353E+01 -.372E+02 0.168E+01   -.387E+01 0.367E+02 -.175E+01   0.359E+00 0.481E+00 0.704E-01   -.897E-02 -.107E-01 0.157E-02
   0.606E+01 -.810E+00 0.440E+02   -.594E+01 0.684E+00 -.441E+02   -.115E+00 0.132E+00 0.878E-01   -.784E-03 -.822E-02 -.127E-02
   -.164E+02 0.105E+03 0.305E+02   0.166E+02 -.105E+03 -.306E+02   -.134E+00 0.477E+00 0.146E+00   0.457E-04 -.416E-02 -.494E-02
   0.172E+02 -.916E+01 0.192E+02   -.173E+02 0.931E+01 -.194E+02   0.152E+00 -.150E+00 0.213E+00   -.625E-03 -.315E-02 0.126E-02
   0.996E+02 -.846E+02 0.154E+03   -.987E+02 0.847E+02 -.154E+03   -.836E+00 -.155E+00 0.302E+00   -.741E-03 0.247E-02 -.500E-02
   0.119E+03 -.983E+02 0.130E+03   -.119E+03 0.990E+02 -.129E+03   -.106E+00 -.672E+00 -.592E+00   -.312E-02 0.423E-02 -.203E-02
   0.112E+03 -.717E+02 0.149E+03   -.112E+03 0.708E+02 -.149E+03   -.192E+00 0.939E+00 0.353E+00   -.292E-02 -.792E-02 -.540E-02
   0.125E+03 -.812E+02 0.133E+03   -.126E+03 0.809E+02 -.132E+03   0.667E+00 0.332E+00 -.698E+00   -.904E-02 -.358E-02 0.214E-02
   0.337E+02 -.131E+03 -.287E+02   -.336E+02 0.130E+03 0.287E+02   -.640E-01 0.388E+00 0.103E-01   0.892E-02 -.351E-02 0.389E-02
   -.739E+02 -.547E+02 0.103E+03   0.737E+02 0.545E+02 -.103E+03   0.170E+00 0.222E+00 -.276E+00   0.457E-02 -.402E-03 0.924E-02
   0.134E+03 0.264E+02 -.412E+02   -.133E+03 -.262E+02 0.409E+02   -.597E-01 -.208E+00 0.290E+00   0.134E-02 0.637E-02 -.148E-02
   0.199E+03 -.142E+03 0.245E+03   -.199E+03 0.142E+03 -.245E+03   -.170E+00 0.566E-01 -.169E+00   -.183E-02 0.877E-03 -.206E-02
   0.234E+02 0.104E+03 0.938E+02   -.235E+02 -.104E+03 -.938E+02   0.120E+00 -.335E+00 0.711E-01   0.229E-02 0.577E-02 -.259E-02
   0.102E+01 -.670E+00 0.122E+01   -.104E-11 -.469E-12 -.540E-11   -.102E+01 0.678E+00 -.124E+01   -.753E-02 -.857E-02 -.107E-02

 POSITION                                       TOTAL-FORCE (eV/Angst)
      0.03686      0.03433      0.04949        -0.001331      0.002859     -0.003613
     12.09573     -1.18919      2.08946         0.000453      0.005391     -0.002570
     -1.57314     -2.43822      4.24651         0.003365      0.000825     -0.000127
     -2.52998     -3.67023      6.35838         0.000044      0.000556      0.000524
     -3.46231     -4.87166      8.53571        -0.000398      0.001426      0.000737
     -1.66460      1.23760      2.13319        -0.002149      0.003561     -0.002581
     -2.54602     -0.00445      4.23120         0.000337      0.003675      0.000548
     -3.40484     -1.24788      6.37787        -0.000339     -0.000290      0.000484
     -2.55861      3.66586      2.08581         0.001164      0.000278     -0.001151
     -3.42582      2.46871      4.23439        -0.003118      0.001897      0.000935
     -4.30008      1.21396      6.36556        -0.001198     -0.000286      0.002739
     -5.10788     -0.05416      8.57933         0.000293     -0.003435      0.002076
     -2.59315      7.35477      0.04064         0.000134     -0.000699     -0.000155
     -3.45936      6.16360      2.15333         0.000681     -0.000020     -0.000224
     -4.29345      4.91042      4.24102         0.000271     -0.002441     -0.000007
     -5.16543      3.69427      6.36804         0.000646     -0.003097      0.002249
     -6.04841      2.45017      8.50630         0.001757     -0.002407     -0.000772
     -4.28416      8.65515      2.22322         0.001183      0.002323      0.002552
      7.75491      7.26355      4.26120         0.001447     -0.004713      0.003869
     -6.03859      6.14435      6.37774        -0.001003     -0.001441      0.001553
     -6.90583      4.92932      8.49564         0.000611     -0.000599     -0.003721
      2.60152      0.00246      0.01651        -0.000059      0.001540     -0.002394
      1.68905     -1.27465      2.22161        -0.001604      0.003625     -0.004636
     -3.47355      9.82800      0.02408         0.002320      0.002263     -0.001605
      0.02392     -3.63772      6.30762        -0.000492     -0.001297     -0.000547
     -0.85098     -4.90085      8.51454         0.002088      0.000147     -0.000760
      1.71615      2.42980      0.04794         0.000367      0.003627     -0.001380
      0.89627      1.19181      2.16648        -0.000221      0.002950     -0.001851
      0.04276     -0.11047      4.23758        -0.002735      0.004564     -0.003367
     -0.91215     -1.17553      6.42836        -0.005249     -0.000811      0.000687
     -1.78137     -2.46812      8.52583        -0.001502     -0.000193      0.000869
      0.83992      4.86579     -0.00051         0.002440      0.002874      0.000357
      0.02307      3.62709      2.12116         0.000622      0.003392     -0.001746
     -0.85155      2.44442      4.24539        -0.001313      0.002557     -0.000842
     -1.71799      1.24598      6.34571        -0.002230      0.001423      0.002552
     -2.57384      0.03073      8.51318         0.000869     -0.001256      0.001037
     -4.27661      1.23498     10.59876         0.000429     -0.001070      0.001313
     -0.87311      6.06629      2.07033         0.000091     -0.001154     -0.001029
     -1.71882      4.88964      4.23445         0.000123      0.001398      0.001582
     -2.57767      3.67756      6.36581        -0.001400      0.001817      0.001814
     -3.44786      2.45471      8.48598         0.002367     -0.001148      0.002556
     -5.18865      3.69998     10.59604         0.002101     -0.001784     -0.002623
     -1.68699      8.54895      2.03404        -0.001685     -0.003583     -0.003845
     -2.63405      7.41841      4.21944        -0.001071     -0.001226      0.000252
     -3.45574      6.13457      6.35509         0.001683      0.001255      0.000532
     -4.31283      4.90421      8.49029         0.001980     -0.000527     -0.002205
      0.88621     -6.12539     10.61736         0.000370     -0.000746      0.002193
     -0.02406     11.02275      2.09415        -0.002458     -0.001306      0.000951
     -1.02468      9.77833      4.15222        -0.007073      0.002656     -0.003983
     -1.79485      8.49934      6.34594         0.004547      0.003067      0.001836
      1.74824     -4.88420      8.50851        -0.000413      0.001249     -0.000591
      4.31791      2.45190      0.01312         0.001033      0.001125      0.000119
      3.47596      1.23275      2.10272         0.000515      0.000813     -0.000006
      2.64925      0.10625      4.22460        -0.001760      0.004983     -0.004135
      1.61798     -1.26664      6.25931        -0.004388      0.000630     -0.007317
      0.80196     -2.45825      8.49617         0.002418     -0.002182     -0.005567
      3.45393      4.90418      0.01805        -0.000113      0.000551      0.000516
      2.60302      3.67912      2.12405         0.002823      0.003824      0.000152
      1.72328      2.47221      4.24909         0.000774      0.000873     -0.000119
      0.85748      1.22289      6.35768        -0.000569     -0.002464     -0.001366
[...]
      6.94086      9.80496      0.02552         0.001021      0.001527      0.003382
      6.10698      8.58746      2.15148         0.005065      0.000044      0.004154
      5.20683      7.37420      4.24887         0.002466     -0.001413      0.001672
      4.36875      6.11966      6.36495        -0.002109     -0.002399     -0.001634
      3.46962      4.97384      8.52581        -0.001044      0.000041     -0.000875
     -0.82412      2.42826      0.04839        -0.000774      0.000533     -0.000842
     -4.21345     -2.47441      8.54455        -0.000883     -0.000783      0.001657
     -1.67167      4.90492      0.08866         0.000650     -0.001861     -0.000283
      2.67229      7.27202      8.54353        -0.003214     -0.004078      0.000809
      9.56153      2.40046      0.10680        -0.002198     -0.004664     -0.000239
      5.19177     -3.63630      6.34311         0.001535      0.003591     -0.000275
      3.46246     -2.41348      8.46088         0.001964      0.003255     -0.000877
      6.92249     -1.21812      6.35400         0.001651     -0.002400     -0.000358
      6.25841     -2.58055      8.72242        -0.000434     -0.002084      0.000726
      5.18832      0.00820      8.47768        -0.000856     -0.000568      0.002821
    total drift:                                0.001052     -0.000246     -0.013026

  FREE ENERGIE OF THE ION-ELECTRON SYSTEM (eV)
  free  energy   TOTEN  =     -1104.49639420 eV

  energy  without entropy=    -1104.49649821  energy(sigma->0) =    -1104.49642887

 reached required accuracy - stopping structural energy minimisation

 total charge

# of ion       s       p       d       tot
    1        0.362   6.245   3.084   9.691
    2        0.375   6.243   3.114   9.732
    3        0.349   6.215   3.020   9.584
    4        0.359   6.239   3.071   9.670
    5        0.358   6.247   3.053   9.659
    6        0.362   6.245   3.084   9.691
    7        0.358   6.239   3.056   9.653
    8        0.356   6.230   3.072   9.658
    9        0.358   6.247   3.053   9.659
   10        0.357   6.240   3.053   9.650
   11        0.352   6.231   3.047   9.630
   12        0.354   6.229   3.048   9.632
   13        0.356   6.230   3.072   9.658
   14        0.359   6.239   3.071   9.670
   15        0.359   6.235   3.085   9.679
   16        0.357   6.238   3.052   9.646
   17        0.352   6.231   3.047   9.630
   18        0.349   6.215   3.020   9.584
   19        0.371   6.238   3.092   9.702
   20        0.359   6.235   3.085   9.679
   21        0.357   6.240   3.053   9.650
   22        0.359   6.240   3.070   9.669
   23        0.352   6.219   3.029   9.600
   24        0.358   6.239   3.056   9.653
   25        0.353   6.214   3.047   9.614
   26        0.357   6.239   3.049   9.645
   27        0.361   6.249   3.066   9.676
   28        0.362   6.244   3.082   9.688
   29        0.352   6.219   3.029   9.600
   30        0.371   6.238   3.104   9.713
   31        0.360   6.242   3.079   9.681
   32        0.359   6.247   3.055   9.661
   33        0.361   6.249   3.066   9.676
   34        0.359   6.240   3.070   9.669
   35        0.359   6.235   3.083   9.677
   36        0.357   6.241   3.062   9.660
   37        0.357   6.241   3.062   9.660
   38        0.360   6.242   3.079   9.681
   39        0.357   6.239   3.049   9.645
   40        0.358   6.238   3.073   9.669
   41        0.358   6.236   3.073   9.667
   42        0.359   6.235   3.084   9.677
   43        0.371   6.238   3.104   9.713
   44        0.353   6.214   3.047   9.614
   45        0.358   6.240   3.050   9.647
   46        0.358   6.238   3.073   9.669
   47        0.358   6.240   3.062   9.659
   48        0.355   6.237   3.047   9.640
   49        0.349   6.206   3.041   9.596
   50        0.368   6.218   3.118   9.703
   51        0.354   6.230   3.063   9.647
   52        0.358   6.238   3.065   9.661
   53        0.360   6.237   3.086   9.682
   54        0.372   6.246   3.068   9.686
   55        0.349   6.206   3.040   9.596
   56        0.355   6.232   3.052   9.639
   57        0.356   6.238   3.053   9.647
   58        0.359   6.240   3.075   9.674
   59        0.360   6.237   3.086   9.682
   60        0.355   6.237   3.047   9.640
[...]
  110        0.358   6.235   3.074   9.667
  111        0.357   6.239   3.059   9.655
  112        0.358   6.233   3.082   9.673
  113        0.358   6.237   3.076   9.670
  114        0.357   6.243   3.063   9.663
  115        0.417   6.338   4.157  10.912
  116        0.423   6.314   4.244  10.982
  117        0.423   6.314   4.245  10.982
  118        0.425   6.315   4.249  10.988
  119        0.425   6.315   4.249  10.988
  120        0.356   6.271   2.113   8.740
  121        0.356   6.271   2.113   8.740
  122        0.354   6.275   2.097   8.726
  123        0.368   6.295   2.148   8.811
  124        0.354   6.275   2.097   8.726
tot         44.647 773.757 381.0941199.498