 vasp.6.4.2 20Jul23 (build Sep 20 2024 16:56:05) complex
 executed on              LinuxNV date 2025.02.09  18:35:01
 OpenACC runtime initialized ...    4 GPUs detected

 INCAR:
   PREC = Accurate
   ENCUT = 520
   EDIFF = 1e-06
   ISMEAR = 1
   SIGMA = 0.2
   NSW = 0
   IBRION = -1
   LWAVE = .FALSE.
   LCHARG = .TRUE.
   LREAL = .FALSE.
   ALGO = Normal

 POTCAR:    PAW_PBE V_pv 07Sep2000
 POTCAR:    PAW_PBE Cr_pv 02Aug2007
 POTCAR:    PAW_PBE Ti_pv 07Sep2000
 POTCAR:    PAW_PBE V_pv 07Sep2000
   VRHFIN =V: p6 d4 s1

   TITEL  = PAW_PBE V_pv 07Sep2000
   POMASS =   50.941; ZVAL   =   11.000    mass and valenz
   ENMAX  =  263.673; ENMIN  =  197.755 eV

   TITEL  = PAW_PBE Cr_pv 02Aug2007
   POMASS =   51.996; ZVAL   =   12.000    mass and valenz
   ENMAX  =  265.681; ENMIN  =  199.261 eV

   TITEL  = PAW_PBE Ti_pv 07Sep2000
   POMASS =   47.880; ZVAL   =   10.000    mass and valenz
   ENMAX  =  222.335; ENMIN  =  166.751 eV

  PAW_PBE V_pv 07Sep2000                :
  PAW_PBE Cr_pv 02Aug2007               :
  PAW_PBE Ti_pv 07Sep2000               :

 POSCAR: V  Cr Ti
  positions in direct lattice
  velocities in cartesian coordinates
 exchange correlation table for  LEXCH =        8
   RHO(1)=    0.500       N(1)  =     2000
   RHO(2)=  100.500       N(2)  =     4000

 ion  position               nearest neighbor table
   1  0.006  0.005  0.005-   2 2.53 115 2.54  28 2.56  22 2.57   5 2.59  24 2.59 114 2.60  95 2.61
                           118 2.95
   2  0.996  0.001  0.195- 110 2.53  96 2.53   1 2.53   6 2.53  29 2.59  23 2.59   3 2.61  18 2.61

   3  0.012  0.001  0.400- 111 2.61  30 2.61   2 2.61   7 2.62  19 2.62   4 2.63  97 2.71  18 2.83
                            29 2.83  25 2.87
   4  0.004  0.000  0.599-  25 2.55  98 2.56  20 2.57   8 2.58 112 2.59  31 2.59   3 2.63   5 2.66
                           116 3.01
   5  0.002  0.005  0.804- 116 2.51 118 2.52  27 2.58   1 2.59  21 2.61  26 2.61 113 2.63   4 2.66
                            98 2.88 115 2.95
   6  0.006  0.202  0.201-   2 2.53 115 2.54  28 2.56  34 2.56   9 2.59   7 2.59  99 2.60  95 2.61
                           119 2.95
   7  0.003  0.199  0.399- 100 2.58  96 2.58  29 2.59  35 2.59   6 2.59   3 2.62  10 2.62   8 2.63

   8  0.004  0.199  0.601-  30 2.49   4 2.58  97 2.58 116 2.62  11 2.62  36 2.62   7 2.63 122 2.67

   9  0.002  0.398  0.197- 117 2.51 119 2.52  33 2.58   6 2.59  10 2.61  39 2.61 102 2.63  14 2.66
                           101 2.88 115 2.95
  10  0.003  0.402  0.400-  34 2.57  15 2.59  40 2.59 103 2.60   9 2.61  99 2.62  11 2.62   7 2.62

  11  0.002  0.400  0.600-  35 2.58  41 2.60 104 2.60 100 2.61   8 2.62  10 2.62  16 2.63  12 2.68
                           122 3.00
  12  0.009  0.400  0.809-  37 2.54  36 2.54 117 2.58 116 2.58  11 2.68  17 2.68 124 2.70 122 2.70
                            32 2.88 123 3.00
  13  0.004  0.603  0.005-  43 2.49  14 2.58 105 2.58 117 2.62  17 2.62  37 2.62  24 2.63 124 2.67

[...]

  16  0.003  0.602  0.601-  46 2.59  40 2.59  15 2.60  20 2.60 103 2.61 108 2.61  17 2.63  11 2.63
                           104 2.91
  17  0.002  0.602  0.802-  42 2.58  41 2.60 104 2.60 109 2.61  13 2.62  21 2.62  16 2.63  12 2.68
                           124 3.00
  18  0.012  0.812  0.211-  43 2.61 111 2.61   2 2.61  24 2.62  19 2.62  14 2.63 105 2.71   3 2.83
                            23 2.83  44 2.87
  19  0.995  0.795  0.401-  20 2.55  15 2.55 106 2.55 112 2.55  25 2.61  44 2.61  18 2.62   3 2.62
                           107 2.90
  20  0.003  0.803  0.602-  19 2.55   4 2.57  26 2.57  45 2.58 113 2.59  21 2.59  16 2.60 107 2.63

[...]

  27  0.201  0.201  0.005- 115 2.54  58 2.58   5 2.58  22 2.58  28 2.59  32 2.59  31 2.60  52 2.60
                           116 2.94
  28  0.203  0.200  0.204-   1 2.56   6 2.56  53 2.58  59 2.58  27 2.59  33 2.59  29 2.59  23 2.59
                            54 2.91 115 3.00
  29  0.199  0.191  0.399-   7 2.59  28 2.59   2 2.59  54 2.62  30 2.62  60 2.63  34 2.71  55 2.81
                             3 2.83  23 2.85
  30  0.200  0.207  0.605-   8 2.49  55 2.54  35 2.55  61 2.57   3 2.61  31 2.61  29 2.62  25 2.64

[...]

  83  0.601  0.406  0.601-  79 2.50  88 2.55  54 2.59  60 2.60  84 2.62 109 2.63  82 2.64 104 2.64
                           124 3.00
  84  0.594  0.407  0.801-  61 2.49  89 2.52  80 2.60  83 2.62 105 2.64 121 2.66 124 2.69  55 2.76
                            85 2.91
  85  0.603  0.603  0.002-  86 2.58  62 2.59  90 2.59  89 2.60  61 2.61 105 2.61  80 2.62 111 2.62
                            84 2.91
  86  0.602  0.602  0.200-  85 2.58  91 2.58  87 2.59  81 2.59  57 2.60  63 2.60 112 2.60 106 2.60

[...]

 104  0.803  0.409  0.594- 103 2.52 108 2.52  17 2.60  11 2.60  78 2.64  83 2.64 124 2.70 122 2.70
                            16 2.91
 105  0.804  0.603  0.003- 106 2.57  13 2.58 110 2.60 109 2.61  85 2.61  84 2.64 101 2.68  18 2.71
                           124 3.00
 106  0.802  0.602  0.199-  19 2.55 105 2.57 111 2.59  14 2.59 102 2.60  80 2.60  86 2.60 107 2.62

[...]

 112  0.802  0.803  0.400-  19 2.55  97 2.57 111 2.58   4 2.59 113 2.60  92 2.60  86 2.60 107 2.62

 113  0.803  0.801  0.600-  98 2.53 108 2.56  20 2.59  93 2.60 112 2.60 114 2.61  87 2.61   5 2.63
                           118 2.99
 114  0.804  0.809  0.803- 118 2.43 109 2.60  94 2.60   1 2.60 113 2.61  21 2.62 110 2.62  88 2.66

 115  0.005  0.201  0.005-  33 2.54  27 2.54   6 2.54   1 2.54 118 2.61 119 2.61 116 2.62 117 2.62
                           123 2.78  95 2.94   5 2.95   9 2.95  32 2.95  28 3.00
 116  0.010  0.201  0.805-  31 2.43   5 2.51  32 2.51 123 2.53  98 2.58  12 2.58 115 2.62   8 2.62
                            27 2.94  36 2.99   4 3.01 118 3.05 117 3.06 122 3.16
 117  0.010  0.405  0.009-  38 2.43   9 2.51  32 2.51 123 2.53 101 2.58  12 2.58  13 2.62 115 2.62
                            33 2.94  37 2.99  14 3.01 119 3.05 116 3.06 124 3.16
 118  0.806  0.998  0.805- 114 2.43  95 2.50   5 2.52 123 2.52  98 2.58  75 2.59  93 2.60 115 2.61
                             1 2.95 113 2.99  94 3.00 116 3.05 119 3.05 120 3.17
 119  0.806  0.201  0.009-  99 2.43  95 2.50   9 2.52 123 2.52 101 2.58  75 2.58  76 2.60 115 2.61
                             6 2.95 102 2.99  72 3.00 117 3.05 118 3.05 121 3.17
 120  0.598  0.002  0.596-  50 2.64  69 2.66  74 2.66  93 2.68  98 2.72  75 2.72  79 2.74 123 2.81
                           122 2.97  92 2.99 121 3.00  70 3.01 118 3.17
 121  0.598  0.202  0.796-  50 2.64  56 2.66  84 2.66  76 2.68 101 2.72  75 2.72  79 2.74 123 2.81
                           124 2.97  80 2.99 120 3.00  51 3.01 119 3.17
 122  0.798  0.200  0.597- 100 2.66   8 2.67  74 2.69 104 2.70  98 2.70  12 2.70  79 2.81 123 2.81
                           120 2.97  78 3.00  11 3.00  97 3.00 124 3.00 116 3.16
 123  0.821  0.201  0.820- 119 2.52 118 2.52 117 2.53 116 2.53 115 2.78 122 2.81 124 2.81 120 2.81
                           121 2.81  75 3.00  12 3.00 101 3.00  98 3.00
 124  0.798  0.401  0.798- 109 2.66  13 2.67  84 2.69 104 2.70 101 2.70  12 2.70  79 2.81 123 2.81
                           121 2.97  83 3.00  17 3.00 105 3.00 122 3.00 117 3.16

  LATTYP: Found a base centered monoclinic cell.
 ALAT       =    15.0482117230
 B/A-ratio  =     1.4081981607
 C/A-ratio  =     1.6569313785
 COS(beta)  =    -0.9052205732

  Lattice vectors:

 A1 = (   4.3071057600,   6.1309426610, -10.6177469370)
 A2 = ( -12.9951470410,   0.0135483230,  -0.0223585750)
 A3 = (  13.0316404910,  -0.0404660660,  21.2572762500)

Analysis of symmetry for initial positions (statically):
 Subroutine PRICEL returns:
 Original cell was already a primitive cell.

 Routine SETGRP: Setting up the symmetry group for a
 base centered monoclinic supercell.

 Subroutine GETGRP returns: Found  1 space group operations
 (whereof  1 operations were pure point group operations)
 out of a pool of  4 trial point group operations.

The static configuration has the point symmetry C_1 .

Analysis of symmetry for dynamics (positions and initial velocities):
 Subroutine PRICEL returns:
 Original cell was already a primitive cell.

 Routine SETGRP: Setting up the symmetry group for a
 base centered monoclinic supercell.

 Subroutine GETGRP returns: Found  1 space group operations
 (whereof  1 operations were pure point group operations)
 out of a pool of  4 trial point group operations.

The dynamic configuration has the point symmetry C_1 .

 Subroutine INISYM returns: Found  1 space group operations
 (whereof  1 operations are pure point group operations),
 and found     1 'primitive' translations

                                     Primitive cell

  volume of cell :    1689.3617

  direct lattice vectors                    reciprocal lattice vectors
    12.995147041 -0.013548323  0.022358575     0.076899476  0.027363571  0.046994778
    -4.344442071 12.248515902 -0.022934774     0.000004010  0.081732338  0.047195846
    -4.307105760 -6.130942661 10.617746937    -0.000161924  0.000118924  0.094184924

  length of vectors
    12.995173338 12.996185776 12.995236356     0.094184943  0.094380205  0.094185138

  position of ions in fractional coordinates (direct lattice)
     0.006099993  0.005141977  0.004659493
     0.995808270  0.001467109  0.194695719
     0.011872142  0.001130148  0.399922161
     0.003825857  0.000102117  0.598836468
     0.001577978  0.004663605  0.803916334
     0.006107222  0.201823297  0.201331326
     0.002934588  0.199320943  0.398926821
     0.003749456  0.199002635  0.601101804
     0.001577075  0.398050253  0.197301917
     0.003103560  0.401605606  0.399664004
     0.001692596  0.399630632  0.600379995
     0.008908194  0.400461580  0.808864273
     0.003750949  0.603030055  0.005122226
     0.003830431  0.605379361  0.204104001
     0.003508697  0.601481807  0.400719584
     0.003133838  0.602465639  0.601048720
     0.001677373  0.601695389  0.802435737
     0.011866460  0.812315657  0.211117019
     0.995358829  0.794808360  0.400948510
     0.003486997  0.803170197  0.602395037
     0.003079913  0.803815935  0.801865443
     0.200898473  0.000990780  0.001133841
     0.199412509  0.000677732  0.208817019
     0.002946984  0.804387866  0.003999664
     0.198723623  0.000374526  0.593646494
     0.200594406  0.001289735  0.801496309
     0.200711973  0.200863058  0.004526606
     0.203348357  0.199661691  0.204046612
     0.199409543  0.190967254  0.399096241
     0.199788646  0.207309258  0.605462682
     0.196146071  0.200651319  0.802999484
     0.197710476  0.397671863  0.000394159
     0.200707997  0.396560775  0.200209257
     0.200915200  0.400149752  0.400280056
     0.200197253  0.401321295  0.598096608
     0.202988987  0.404288082  0.802234043
     0.203010857  0.601137542  0.999082246
     0.196148701  0.593519886  0.195856576
     0.200618477  0.599483034  0.399681347
     0.201569618  0.601004749  0.600417626
     0.200828352  0.601118804  0.800101839
     0.200198832  0.802475982  0.999267393
     0.199790510  0.794716668  0.192865462
     0.198729000  0.805453982  0.398716575
     0.200775140  0.801312863  0.599843069
     0.201541398  0.801521694  0.800939230
     0.399496776  0.000456661  0.999123223
[...]
    -4.307105760 -6.130942661 10.617746937    -0.000161924  0.000118924  0.094184924

  length of vectors
    12.995173338 12.996185776 12.995236356     0.094184943  0.094380205  0.094185138

 FORCES acting on ions
    electron-ion (+dipol)            ewald-force                    non-local-force                 convergence-correction
   -.442E+02 0.103E+03 -.228E+02   0.440E+02 -.103E+03 0.225E+02   0.187E+00 -.265E+00 0.294E+00   -.197E-02 0.619E-02 -.906E-02
   -.754E+02 0.106E+03 -.123E+03   0.756E+02 -.106E+03 0.123E+03   -.209E+00 0.134E+00 -.251E+00   -.102E-01 -.658E-02 -.470E-02
   -.178E+03 0.117E+02 -.172E+02   0.177E+03 -.117E+02 0.172E+02   0.144E+01 0.249E-01 -.233E-01   -.104E-01 -.105E-01 -.279E-03
   -.410E+02 -.281E+02 0.703E+02   0.409E+02 0.279E+02 -.704E+02   0.302E-01 0.140E+00 0.116E+00   -.698E-02 -.843E-03 0.520E-02
   -.690E+02 0.427E+02 0.716E+02   0.692E+02 -.428E+02 -.721E+02   -.193E+00 0.908E-01 0.553E+00   -.362E-02 0.931E-02 -.659E-02
   0.154E+02 0.613E+02 -.959E+02   -.156E+02 -.610E+02 0.956E+02   0.177E+00 -.257E+00 0.305E+00   -.510E-02 0.864E-02 -.501E-02
   -.750E+00 0.542E+02 -.428E+02   0.816E+00 -.542E+02 0.429E+02   -.596E-01 0.494E-02 -.158E+00   -.666E-02 -.271E-02 0.166E-02
   0.857E+02 -.169E+02 0.578E+02   -.861E+02 0.171E+02 -.572E+02   0.474E+00 -.176E+00 -.549E+00   -.600E-03 -.801E-02 0.132E-01
   0.556E+02 -.453E+02 -.810E+02   -.560E+02 0.457E+02 0.812E+02   0.429E+00 -.349E+00 -.211E+00   -.220E-02 0.876E-02 -.789E-02
   0.320E+02 0.237E+02 -.369E+02   -.321E+02 -.240E+02 0.369E+02   0.264E-01 0.268E+00 -.221E-01   -.322E-04 0.826E-02 -.508E-02
   0.746E+02 0.620E+02 -.113E+02   -.747E+02 -.620E+02 0.113E+02   0.876E-01 0.154E-01 -.473E-01   0.621E-02 -.192E-02 0.764E-02
   0.163E+03 -.238E+02 0.147E+03   -.163E+03 0.236E+02 -.147E+03   0.629E-01 0.245E+00 -.874E-01   0.978E-02 -.122E-01 0.152E-01
   0.677E+02 -.417E+01 0.796E+02   -.674E+02 0.376E+01 -.801E+02   -.373E+00 0.423E+00 0.489E+00   0.663E-02 -.133E-01 0.451E-02
   0.305E+02 -.785E+02 -.174E+02   -.307E+02 0.785E+02 0.174E+02   0.170E+00 0.420E-01 -.567E-01   0.162E-02 -.688E-02 -.528E-02
   0.119E+01 -.312E+02 -.137E+02   -.151E+01 0.307E+02 0.138E+02   0.318E+00 0.446E+00 -.104E+00   0.118E-02 0.120E-02 -.550E-02
   0.103E+02 0.271E+02 -.719E+01   -.104E+02 -.274E+02 0.728E+01   0.102E+00 0.296E+00 -.871E-01   0.441E-02 0.640E-02 -.396E-03
   0.448E+02 0.830E+02 0.252E+02   -.448E+02 -.831E+02 -.252E+02   -.305E-02 0.782E-01 0.623E-01   0.737E-02 -.295E-02 0.639E-02
   -.678E+02 -.662E+02 -.152E+03   0.673E+02 0.656E+02 0.151E+03   0.474E+00 0.709E+00 0.116E+01   -.838E-02 -.121E-01 -.266E-02
   -.859E+02 -.124E+03 0.163E+01   0.859E+02 0.124E+03 -.169E+01   -.315E-01 -.152E+00 0.648E-01   -.773E-02 -.471E-02 -.413E-02
   -.255E+02 -.122E+02 0.190E+02   0.253E+02 0.117E+02 -.190E+02   0.230E+00 0.510E+00 0.130E-02   -.328E-02 0.424E-02 0.596E-05
   -.834E+01 0.523E+02 0.125E+02   0.822E+01 -.525E+02 -.123E+02   0.116E+00 0.204E+00 -.134E+00   -.318E-03 0.812E-02 -.464E-02
   -.287E+02 0.478E+02 -.336E+02   0.288E+02 -.479E+02 0.339E+02   -.211E-01 0.656E-01 -.270E+00   0.298E-02 0.725E-02 -.100E-01
   0.215E+02 0.118E+03 -.185E+03   -.210E+02 -.117E+03 0.184E+03   -.497E+00 -.600E+00 0.104E+01   -.287E-02 -.199E-02 -.724E-02
   -.959E+01 0.605E+02 -.319E+02   0.974E+01 -.606E+02 0.319E+02   -.146E+00 0.664E-01 -.507E-01   -.216E-02 -.628E-02 -.363E-02
   -.109E+03 -.105E+03 0.143E+03   0.109E+03 0.104E+03 -.142E+03   0.522E+00 0.511E+00 -.907E+00   -.824E-02 -.512E-02 0.725E-02
   -.616E+02 -.222E+02 0.496E+02   0.617E+02 0.223E+02 -.496E+02   -.828E-01 -.166E+00 0.731E-01   -.336E-02 0.629E-02 -.167E-03
   -.954E+02 0.946E+01 -.748E+01   0.954E+02 -.961E+01 0.772E+01   0.113E-01 0.145E+00 -.234E+00   0.520E-03 0.164E-01 -.742E-02
   -.485E+02 0.784E+02 -.850E+02   0.488E+02 -.785E+02 0.853E+02   -.289E+00 0.627E-01 -.274E+00   0.366E-04 0.126E-01 -.713E-02
   -.885E+02 0.196E+03 -.506E+02   0.881E+02 -.195E+03 0.507E+02   0.406E+00 -.124E+01 -.606E-01   -.769E-02 0.170E-02 -.133E-02
   -.105E+03 0.618E+02 0.855E+02   0.105E+03 -.621E+02 -.853E+02   0.476E-01 0.212E+00 -.226E+00   -.118E-01 -.619E-02 0.150E-01
   -.114E+03 -.179E+02 0.583E+02   0.114E+03 0.180E+02 -.581E+02   -.242E+00 -.180E+00 -.237E+00   -.699E-02 0.503E-02 0.768E-02
   -.627E+02 -.770E+02 -.680E+01   0.629E+02 0.774E+02 0.674E+01   -.216E+00 -.422E+00 0.653E-01   0.113E-02 0.657E-02 -.260E-02
   -.334E+02 -.343E+02 -.834E+02   0.335E+02 0.341E+02 0.835E+02   -.120E+00 0.238E+00 -.750E-01   0.157E-02 0.157E-01 -.879E-02
   -.144E+02 0.378E+02 -.511E+02   0.146E+02 -.380E+02 0.511E+02   -.195E+00 0.189E+00 -.555E-01   -.387E-02 0.123E-01 -.184E-02
   -.661E+01 0.310E+02 0.485E+00   0.633E+01 -.308E+02 -.564E-01   0.283E+00 -.236E+00 -.436E+00   -.544E-02 0.103E-02 0.975E-02
   -.115E+02 -.195E+02 0.454E+02   0.118E+02 0.195E+02 -.455E+02   -.298E+00 -.296E-01 0.121E+00   -.284E-02 -.790E-02 0.152E-01
   0.240E+02 -.446E+02 0.180E+01   -.240E+02 0.448E+02 -.157E+01   -.148E-01 -.229E+00 -.228E+00   0.753E-02 -.154E-01 0.252E-02
   0.134E+01 -.992E+02 -.825E+02   -.984E+00 0.993E+02 0.826E+02   -.358E+00 -.985E-01 -.964E-01   0.603E-02 -.432E-02 -.844E-02
   0.957E+01 -.724E+02 -.375E+02   -.953E+01 0.726E+02 0.375E+02   -.439E-01 -.191E+00 0.277E-01   0.163E-02 0.274E-02 -.664E-02
   0.926E+01 -.147E+02 -.950E+01   -.933E+01 0.148E+02 0.946E+01   0.659E-01 -.159E+00 0.466E-01   0.816E-03 0.418E-02 0.219E-02
   0.271E+02 0.364E+01 0.200E+02   -.270E+02 -.346E+01 -.201E+02   -.388E-01 -.179E+00 0.728E-01   0.518E-02 -.585E-02 0.758E-02
   0.127E+02 0.173E+02 -.233E+02   -.123E+02 -.175E+02 0.229E+02   -.375E+00 0.227E+00 0.368E+00   0.654E-02 -.784E-02 -.481E-02
   0.639E+02 -.575E+02 -.121E+03   -.638E+02 0.572E+02 0.121E+03   -.704E-01 0.296E+00 -.826E-01   0.525E-02 -.187E-01 -.605E-02
   0.309E+02 -.204E+03 -.286E+02   -.305E+02 0.203E+03 0.285E+02   -.324E+00 0.111E+01 0.129E+00   0.905E-03 -.117E-01 -.418E-02
   -.283E+02 -.683E+02 0.164E+02   0.284E+02 0.684E+02 -.163E+02   -.179E+00 -.687E-01 -.108E+00   -.107E-02 -.246E-02 0.154E-03
   -.117E+02 0.993E-01 0.160E+02   0.117E+02 0.659E-03 -.161E+02   -.174E-01 -.102E+00 0.145E+00   0.423E-02 0.167E-02 -.176E-02
   -.164E+02 -.300E+01 -.420E+01   0.163E+02 0.298E+01 0.431E+01   0.244E-01 0.121E-01 -.105E+00   0.605E-02 0.341E-02 -.612E-02
   0.222E+02 0.264E+02 -.778E+02   -.220E+02 -.264E+02 0.777E+02   -.224E+00 0.383E-01 0.103E+00   0.930E-02 -.412E-02 -.934E-02
   0.123E+03 0.116E+02 -.103E+03   -.122E+03 -.120E+02 0.103E+03   -.130E+01 0.393E+00 -.688E-01   0.497E-02 -.163E-01 -.354E-02
   -.556E+02 -.140E+03 0.355E+02   0.555E+02 0.140E+03 -.356E+02   0.351E-01 -.136E+00 0.106E+00   0.325E-02 -.957E-02 0.792E-02
   -.564E+02 -.787E+02 0.485E+02   0.568E+02 0.785E+02 -.481E+02   -.332E+00 0.160E+00 -.365E+00   0.486E-03 -.480E-03 0.507E-02
   -.632E+02 -.140E+02 0.324E+02   0.633E+02 0.140E+02 -.325E+02   -.145E+00 0.290E-02 0.261E-01   -.507E-03 0.108E-01 -.335E-02
   -.261E+02 0.450E+02 -.462E+02   0.264E+02 -.446E+02 0.461E+02   -.301E+00 -.464E+00 0.812E-01   0.121E-02 0.139E-01 -.109E-01
   0.320E+02 0.143E+03 -.561E+02   -.320E+02 -.143E+03 0.563E+02   0.394E-02 0.443E+00 -.252E+00   -.559E-03 0.666E-02 -.433E-02
   -.374E+02 0.125E+03 0.939E+02   0.377E+02 -.125E+03 -.927E+02   -.304E+00 -.313E+00 -.129E+01   -.871E-02 -.641E-02 0.134E-01
   -.122E+03 -.155E+02 0.743E+02   0.122E+03 0.156E+02 -.744E+02   0.270E+00 -.121E+00 0.873E-01   -.667E-02 -.342E-04 0.111E-01
   -.554E+02 -.138E+02 0.260E+02   0.556E+02 0.137E+02 -.261E+02   -.122E+00 0.545E-01 0.459E-01   -.814E-02 0.595E-02 0.205E-02
   -.396E+02 -.505E+01 -.294E+02   0.397E+02 0.498E+01 0.296E+02   -.878E-01 0.627E-01 -.108E+00   0.528E-03 0.165E-01 -.901E-02
   -.252E+02 0.444E+02 -.473E+02   0.255E+02 -.439E+02 0.473E+02   -.254E+00 -.498E+00 0.221E-01   -.209E-02 0.162E-01 -.710E-02
   -.436E+02 0.730E+02 0.305E+01   0.435E+02 -.728E+02 -.286E+01   0.284E-01 -.140E+00 -.204E+00   -.644E-02 0.717E-02 0.989E-02
[...]
   -.361E+02 -.802E+00 -.290E+02   0.360E+02 0.795E+00 0.289E+02   0.111E+00 0.175E-01 0.830E-01   -.877E-02 -.101E-01 -.168E-02
   0.352E+01 -.372E+02 0.169E+01   -.387E+01 0.367E+02 -.176E+01   0.359E+00 0.481E+00 0.705E-01   -.355E-02 -.994E-03 -.479E-02
   0.606E+01 -.824E+00 0.440E+02   -.594E+01 0.681E+00 -.441E+02   -.115E+00 0.132E+00 0.877E-01   -.206E-02 0.807E-02 -.160E-02
   -.164E+02 0.105E+03 0.305E+02   0.166E+02 -.105E+03 -.306E+02   -.134E+00 0.477E+00 0.146E+00   -.401E-02 0.846E-02 -.506E-02
   0.172E+02 -.918E+01 0.192E+02   -.173E+02 0.931E+01 -.194E+02   0.152E+00 -.150E+00 0.213E+00   -.322E-02 0.173E-01 -.127E-01
   0.996E+02 -.846E+02 0.154E+03   -.987E+02 0.847E+02 -.154E+03   -.836E+00 -.155E+00 0.302E+00   0.138E-02 0.477E-02 0.621E-02
   0.119E+03 -.983E+02 0.130E+03   -.119E+03 0.989E+02 -.129E+03   -.106E+00 -.672E+00 -.592E+00   0.761E-02 0.611E-03 -.120E-02
   0.112E+03 -.717E+02 0.149E+03   -.112E+03 0.708E+02 -.149E+03   -.192E+00 0.939E+00 0.353E+00   0.152E-03 0.920E-02 -.601E-02
   0.125E+03 -.812E+02 0.133E+03   -.126E+03 0.809E+02 -.132E+03   0.667E+00 0.332E+00 -.698E+00   -.494E-03 0.985E-02 -.502E-02
   0.337E+02 -.131E+03 -.287E+02   -.336E+02 0.130E+03 0.287E+02   -.641E-01 0.388E+00 0.103E-01   0.829E-02 -.100E-01 0.665E-02
   -.739E+02 -.547E+02 0.103E+03   0.737E+02 0.545E+02 -.103E+03   0.170E+00 0.222E+00 -.276E+00   0.353E-02 -.648E-02 0.126E-01
   0.133E+03 0.265E+02 -.412E+02   -.133E+03 -.262E+02 0.409E+02   -.598E-01 -.208E+00 0.290E+00   0.112E-01 -.107E-01 0.104E-01
   0.199E+03 -.142E+03 0.245E+03   -.199E+03 0.142E+03 -.245E+03   -.170E+00 0.566E-01 -.169E+00   0.611E-02 -.351E-02 0.688E-02
   0.234E+02 0.104E+03 0.937E+02   -.235E+02 -.104E+03 -.938E+02   0.120E+00 -.335E+00 0.711E-01   0.711E-02 -.777E-02 0.156E-01
   0.103E+01 -.712E+00 0.125E+01   0.341E-11 0.117E-11 -.244E-11   -.102E+01 0.678E+00 -.124E+01   -.831E-02 0.331E-01 -.256E-01

 POSITION                                       TOTAL-FORCE (eV/Angst)
      0.03686      0.03433      0.04949        -0.001306      0.002469     -0.003524
     12.09573     -1.18919      2.08946         0.000452      0.006046     -0.002971
     -1.57314     -2.43822      4.24651         0.003328      0.001110     -0.000013
     -2.52998     -3.67023      6.35838        -0.000175      0.000405      0.000649
     -3.46231     -4.87166      8.53571        -0.000169      0.001251      0.000924
     -1.66460      1.23760      2.13319        -0.002216      0.003236     -0.002371
     -2.54602     -0.00445      4.23120         0.000287      0.004051      0.000437
     -3.40484     -1.24788      6.37787        -0.000384     -0.000046      0.000255
     -2.55861      3.66586      2.08581         0.001314      0.000164     -0.000838
     -3.42582      2.46871      4.23439        -0.003208      0.001739      0.001137
     -4.30008      1.21396      6.36556        -0.001379     -0.000175      0.002661
     -5.10788     -0.05416      8.57933         0.000112     -0.002989      0.001652
     -2.59315      7.35477      0.04064         0.000014     -0.000429     -0.000323
     -3.45936      6.16360      2.15333         0.000590     -0.000244     -0.000250
     -4.29345      4.91042      4.24102         0.000120     -0.002507      0.000025
     -5.16543      3.69427      6.36804         0.000601     -0.003255      0.002303
     -6.04841      2.45017      8.50630         0.001670     -0.002305     -0.000987
     -4.28416      8.65515      2.22322         0.001411      0.002418      0.002359
      7.75491      7.26355      4.26120         0.001246     -0.005280      0.004076
     -6.03859      6.14435      6.37774        -0.001013     -0.001545      0.001501
     -6.90583      4.92932      8.49564         0.000682     -0.000846     -0.003670
      2.60152      0.00246      0.01651        -0.000155      0.001575     -0.002308
      1.68905     -1.27465      2.22161        -0.001402      0.003797     -0.004796
     -3.47355      9.82800      0.02408         0.002356      0.002592     -0.001906
      0.02392     -3.63772      6.30762        -0.000529     -0.001447     -0.000537
     -0.85098     -4.90085      8.51454         0.002163     -0.000154     -0.000583
      1.71615      2.42980      0.04794         0.000695      0.003225     -0.001253
      0.89627      1.19181      2.16648        -0.000307      0.003081     -0.001955
      0.04276     -0.11047      4.23758        -0.002727      0.004898     -0.003325
     -0.91215     -1.17553      6.42836        -0.005437     -0.000287      0.000814
     -1.78137     -2.46812      8.52583        -0.001411     -0.000381      0.000839
      0.83992      4.86579     -0.00051         0.002576      0.002746      0.000553
      0.02307      3.62709      2.12116         0.000653      0.003203     -0.001308
     -0.85155      2.44442      4.24539        -0.001227      0.002461     -0.000923
     -1.71799      1.24598      6.34571        -0.002160      0.001496      0.002416
     -2.57384      0.03073      8.51318         0.000972     -0.000874      0.000719
     -4.27660      1.23498     10.59875         0.000416     -0.000622      0.001185
     -0.87311      6.06629      2.07033        -0.000025     -0.001277     -0.000863
     -1.71882      4.88964      4.23445         0.000180      0.001200      0.001803
     -2.57767      3.67756      6.36581        -0.001465      0.001689      0.001833
     -3.44786      2.45471      8.48598         0.002241     -0.001026      0.002355
     -5.18865      3.69998     10.59604         0.002065     -0.001593     -0.002626
     -1.68699      8.54895      2.03404        -0.001406     -0.003367     -0.004258
     -2.63405      7.41841      4.21944        -0.001121     -0.001365      0.000279
     -3.45574      6.13457      6.35509         0.001767      0.000912      0.000789
     -4.31283      4.90421      8.49029         0.001905     -0.000610     -0.002183
      0.88621     -6.12539     10.61736         0.000253     -0.000885      0.002280
     -0.02406     11.02275      2.09415        -0.002424     -0.001120      0.000870
     -1.02468      9.77833      4.15222        -0.006882      0.003214     -0.003940
     -1.79485      8.49934      6.34594         0.004794      0.002714      0.002233
      1.74824     -4.88420      8.50851        -0.000350      0.001219     -0.000632
      4.31791      2.45190      0.01312         0.000954      0.000911      0.000257
      3.47596      1.23275      2.10272         0.000615      0.000586      0.000157
      2.64925      0.10625      4.22460        -0.001472      0.005322     -0.004156
      1.61798     -1.26664      6.25931        -0.004027      0.001068     -0.007469
      0.80196     -2.45825      8.49617         0.002433     -0.002254     -0.005221
      3.45393      4.90418      0.01805         0.000268      0.000527      0.000611
      2.60302      3.67912      2.12405         0.002698      0.003427      0.000255
      1.72328      2.47221      4.24909         0.000777      0.000637      0.000074
      0.85748      1.22289      6.35768        -0.000512     -0.002266     -0.001413
[...]
      6.94086      9.80496      0.02552         0.001068      0.001790      0.003194
      6.10698      8.58746      2.15148         0.004834      0.000169      0.003916
      5.20683      7.37420      4.24887         0.002338     -0.001683      0.001773
      4.36875      6.11966      6.36495        -0.002137     -0.002651     -0.001622
      3.46962      4.97384      8.52581        -0.000956     -0.000267     -0.000760
     -0.82412      2.42826      0.04839        -0.000621      0.000141     -0.000457
     -4.21345     -2.47441      8.54455        -0.000950     -0.000907      0.001296
     -1.67167      4.90492      0.08866         0.000350     -0.001771     -0.000261
      2.67229      7.27202      8.54353        -0.003342     -0.004372      0.000877
      9.56153      2.40046      0.10680        -0.002369     -0.004994     -0.000224
      5.19177     -3.63630      6.34311         0.001502      0.003734     -0.000297
      3.46246     -2.41348      8.46088         0.002008      0.003396     -0.000977
      6.92249     -1.21812      6.35400         0.001330     -0.002036     -0.000664
      6.25841     -2.58055      8.72242        -0.000663     -0.001861      0.000452
      5.18832      0.00820      8.47768        -0.001023     -0.000354      0.002329
    total drift:                                0.001101     -0.000664     -0.012762

  FREE ENERGIE OF THE ION-ELECTRON SYSTEM (eV)
  free  energy   TOTEN  =     -1104.49639404 eV

  energy  without entropy=    -1104.49650463  energy(sigma->0) =    -1104.49643091