 vasp.6.4.2 20Jul23 (build Sep 20 2024 16:56:05) complex
 executed on              LinuxNV date 2025.02.03  18:11:13
 OpenACC runtime initialized ...    4 GPUs detected

 INCAR:
   PREC = Accurate
   ENCUT = 520
   EDIFF = 1e-06
   ISMEAR = 1
   SIGMA = 0.2
   NSW = 0
   IBRION = -1
   LWAVE = .FALSE.
   LCHARG = .TRUE.
   LREAL = .FALSE.
   ALGO = Normal

 POTCAR:    PAW_PBE Cr_pv 02Aug2007
 POTCAR:    PAW_PBE Ti_pv 07Sep2000
 POTCAR:    PAW_PBE V_pv 07Sep2000
 POTCAR:    PAW_PBE W_sv 04Sep2015
 POTCAR:    PAW_PBE Zr_sv 04Jan2005
 POTCAR:    PAW_PBE Cr_pv 02Aug2007
   VRHFIN =Cr : p6d5s1

   TITEL  = PAW_PBE Cr_pv 02Aug2007
   POMASS =   51.996; ZVAL   =   12.000    mass and valenz
   ENMAX  =  265.681; ENMIN  =  199.261 eV

   TITEL  = PAW_PBE Ti_pv 07Sep2000
   POMASS =   47.880; ZVAL   =   10.000    mass and valenz
   ENMAX  =  222.335; ENMIN  =  166.751 eV

   TITEL  = PAW_PBE V_pv 07Sep2000
   POMASS =   50.941; ZVAL   =   11.000    mass and valenz
   ENMAX  =  263.673; ENMIN  =  197.755 eV

   TITEL  = PAW_PBE W_sv 04Sep2015
   POMASS =  183.850; ZVAL   =   14.000    mass and valenz
   ENMAX  =  223.057; ENMIN  =  167.293 eV

   TITEL  = PAW_PBE Zr_sv 04Jan2005
   POMASS =   91.224; ZVAL   =   12.000    mass and valenz
   ENMAX  =  229.898; ENMIN  =  172.424 eV

  PAW_PBE Cr_pv 02Aug2007               :
  PAW_PBE Ti_pv 07Sep2000               :
  PAW_PBE V_pv 07Sep2000                :
  PAW_PBE W_sv 04Sep2015                :
  PAW_PBE Zr_sv 04Jan2005               :

 POSCAR: Cr Ti V  W  Zr
  positions in cartesian coordinates
 exchange correlation table for  LEXCH =        8
   RHO(1)=    0.500       N(1)  =     2000
   RHO(2)=  100.500       N(2)  =     4000

 ion  position               nearest neighbor table
   1  0.002  0.749  0.999- 121 2.52  37 2.58 109 2.59  31 2.60 117 2.60 122 2.61 115 2.61  26 2.61
                            36 3.00  12 3.01  32 3.02 126 3.14
   2  0.381  0.375  0.122-  73 2.50  52 2.54  71 2.54  79 2.55  51 2.55  45 2.57  81 2.57  46 2.62
                            20 2.95  72 2.99  50 3.01  47 3.02   3 3.03  39 3.03
   3  0.378  0.626  0.119-  51 2.52  87 2.54  57 2.54  52 2.55  79 2.55  59 2.59  89 2.60  81 2.62
                            26 3.00  56 3.00  80 3.00   2 3.03  58 3.04 123 3.06
   4  0.751  0.261  0.495- 104 2.39  74 2.48  98 2.52 105 2.56  76 2.61  10 2.67  67 2.68 127 2.72
                           112 2.93 103 2.96
   5  0.023  0.227  0.277-  21 2.64  13 2.65  98 2.65  22 2.75  14 2.76  20 2.76  96 2.79 104 2.82
                            46 2.86 102 2.97
   6  0.122  0.622  0.372-  27 2.64  32 2.67  53 2.69  28 2.70  34 2.71  59 2.72  52 2.75   9 2.77
                            21 2.79  33 2.94 111 2.97  26 3.00 123 3.09
   7  0.234  0.014  0.485-  33 2.67  16 2.72  42 2.74  41 2.74  35 2.74  60 2.76  15 2.79   8 2.81
                            40 2.85  61 2.91   9 3.11
   8  0.234  0.246  0.485-  21 2.57  23 2.72  47 2.72  42 2.73  41 2.75  16 2.75  22 2.79   7 2.81
                            48 2.85  46 2.88
   9  0.251  0.758  0.504-  61 2.63  33 2.64  35 2.64  54 2.68  29 2.69  60 2.72 123 2.73   6 2.77
                            62 2.95  91 3.02   7 3.11
  10  0.872  0.129  0.624-  22 2.61   4 2.67  15 2.68  24 2.68  17 2.72 106 2.74  99 2.75 100 2.78
                            98 2.93  16 2.96 105 2.98 127 3.04 125 3.07 124 3.09
  11  0.748  0.750  0.251-  82 2.63 109 2.64  90 2.66 118 2.66  88 2.66  80 2.67 117 2.67 111 2.69
                            32 2.97  89 2.97  97 2.99 119 2.99 116 3.02 110 3.04
  12  0.001  0.998  0.003- 117 2.56  13 2.57 122 2.58  96 2.60 124 2.61 121 2.62  18 2.62  37 2.63
                             1 3.01
  13  0.131  0.122  0.117-  19 2.50  40 2.53  38 2.54  12 2.57  45 2.59   5 2.65  46 2.70  14 2.73
                            18 2.88 122 3.01
  14  0.004  0.000  0.258-  33 2.52 118 2.56  96 2.57 122 2.69 117 2.72  13 2.73  98 2.74   5 2.76
                            15 2.84
  15  0.003  0.008  0.493-  98 2.60 118 2.62  35 2.66  33 2.66  16 2.67  10 2.68 125 2.77   7 2.79
                            14 2.84  22 2.90
  16  0.117  0.127  0.640-  24 2.50  17 2.51  43 2.55  49 2.56  22 2.60  15 2.67   7 2.72   8 2.75
                            18 2.89  10 2.96
  17  0.000  0.997  0.754-  16 2.51  35 2.52  37 2.58 121 2.64 124 2.64  18 2.64 125 2.64  10 2.72

  18  0.128  0.122  0.878-  43 2.57  38 2.58  19 2.61  12 2.62  17 2.64  49 2.64  45 2.67  24 2.67
                            13 2.88  16 2.89 124 3.06
  19  0.003  0.243  0.007-  13 2.50  96 2.60  18 2.61 124 2.63 102 2.67  20 2.68  25 2.77 107 2.79
                           126 2.99
  20  0.138  0.364  0.134-  46 2.42  45 2.55  52 2.55  27 2.68  19 2.68  51 2.74 126 2.75   5 2.76
                             2 2.95
  21  0.125  0.392  0.376-  27 2.47  53 2.55   8 2.57  28 2.58   5 2.64  52 2.64  22 2.73   6 2.79
                            46 2.81
  22  0.004  0.248  0.502- 104 2.59  23 2.60  16 2.60  10 2.61 105 2.67  98 2.72  21 2.73   5 2.75
                             8 2.79  15 2.90
  23  0.122  0.379  0.627-  28 2.55  30 2.57  24 2.60  22 2.60  55 2.61  53 2.62  49 2.63   8 2.72

  24  0.001  0.254  0.754-  16 2.50  25 2.55 107 2.56  23 2.60 105 2.65  18 2.67 124 2.67  10 2.68

  25  0.137  0.368  0.869-  49 2.43  24 2.55  55 2.57  45 2.58 126 2.70  51 2.72  30 2.74  19 2.77
                            50 2.90
  26  0.130  0.628  0.124-  59 2.58  57 2.59   1 2.61  52 2.63  51 2.67  32 2.69 126 2.72  27 2.75
                           122 2.96   6 3.00   3 3.00
  27  0.998  0.491  0.249-  21 2.47 102 2.57 109 2.64   6 2.64 111 2.65 104 2.65  20 2.68  26 2.75
                           126 3.02
  28  0.995  0.498  0.507- 105 2.53 113 2.55  23 2.55 111 2.58  21 2.58  29 2.62 104 2.62   6 2.70

[...]

  30  1.000  0.502  0.749-  29 2.54  23 2.57 113 2.58 105 2.64 115 2.66  31 2.69 107 2.69  25 2.74
                           126 3.04
  31  0.131  0.632  0.873-  57 2.55  62 2.55  36 2.59   1 2.60  55 2.62  30 2.69  51 2.72 126 2.76

  32  0.994  0.752  0.248-  33 2.51 109 2.52 117 2.54 118 2.59 122 2.64 111 2.65   6 2.67  26 2.69
                            11 2.97   1 3.02
  33  0.117  0.866  0.370-  32 2.51  14 2.52  34 2.56   9 2.64  15 2.66   7 2.67  59 2.68  40 2.74
                           118 2.92   6 2.94 122 2.99
  34  0.997  0.753  0.503-  33 2.56 125 2.58 113 2.60 118 2.61  35 2.63 111 2.64  29 2.64   6 2.71

[...]

  39  0.377  0.125  0.122-  45 2.56  66 2.57  64 2.59  71 2.59  38 2.60  46 2.61  73 2.62  40 2.62
                             2 3.03
  40  0.246  0.009  0.250-  13 2.53  60 2.58  39 2.62  41 2.66 122 2.67  58 2.74  33 2.74   7 2.85
                            46 2.92
  41  0.388  0.130  0.366-  75 2.51  66 2.53  73 2.53  68 2.53  46 2.58  40 2.66   7 2.74   8 2.75
                            67 2.85
  42  0.368  0.129  0.625-  49 2.55  43 2.61  77 2.69  75 2.70  69 2.70  68 2.71   8 2.73   7 2.74
                           127 3.05
  43  0.247  0.002  0.750-  16 2.55  18 2.57  61 2.57  35 2.59  42 2.61  63 2.63  37 2.63  44 2.63

[...]

  96  0.879  0.119  0.133-  97 2.55  14 2.57  12 2.60  19 2.60 103 2.61  95 2.66 101 2.70   5 2.79
                           124 3.06
  97  0.750  0.997  0.248-  96 2.55 118 2.59  98 2.61  65 2.61  88 2.62  90 2.62 117 2.63  67 2.66
                            11 2.99
  98  0.860  0.124  0.382-  99 2.49   4 2.52 103 2.55  15 2.60  97 2.61   5 2.65  22 2.72  14 2.74
                            67 2.86  10 2.93
  99  0.748  0.991  0.493-  98 2.49 118 2.51  90 2.51 125 2.62  92 2.65  67 2.69  10 2.75 127 2.77

[...]

 102  0.871  0.361  0.138- 103 2.42 101 2.57  27 2.57 110 2.59  19 2.67 126 2.78 108 2.79   5 2.97

[...]

 105  0.872  0.376  0.624-  28 2.53   4 2.56 112 2.61 106 2.61 114 2.63  30 2.64  24 2.65  22 2.67
                            10 2.98
 106  0.750  0.261  0.761- 107 2.35  78 2.51 105 2.61 124 2.66  76 2.68  70 2.69  10 2.74 127 2.79

 107  0.868  0.371  0.871- 106 2.35  24 2.56 114 2.60 101 2.61 108 2.65 126 2.68  30 2.69  19 2.79
                           124 3.00
 108  0.747  0.499  0.001-  80 2.53  72 2.57  78 2.60  86 2.61 107 2.65 115 2.67 109 2.70 102 2.79
                           126 3.10
 109  0.880  0.628  0.126-  32 2.52   1 2.59 116 2.62  27 2.64  11 2.64 110 2.67 108 2.70 126 2.72

 110  0.751  0.498  0.251- 102 2.59  74 2.59  72 2.59  82 2.61 111 2.61  80 2.64 104 2.66 109 2.67
                            11 3.04
 111  0.877  0.620  0.378- 112 2.56  28 2.58 110 2.61 119 2.63  34 2.64  27 2.65  32 2.65  11 2.69
                             6 2.97
 112  0.749  0.503  0.501-  82 2.55 111 2.56  76 2.57 113 2.59  84 2.59 105 2.61  74 2.62 104 2.63
                             4 2.93
 113  0.875  0.624  0.625-  28 2.55  30 2.58 112 2.59 114 2.60  34 2.60  36 2.62 120 2.63 119 2.63
                           125 3.04
 114  0.748  0.503  0.750-  86 2.59  84 2.59 113 2.60 107 2.60 115 2.62  76 2.62  78 2.63 105 2.63

 115  0.872  0.630  0.874- 120 2.54 116 2.57  36 2.58   1 2.61 114 2.62  30 2.66 108 2.67 126 2.78
                           121 2.89
 116  0.749  0.747  0.001- 115 2.57  80 2.57 121 2.59  86 2.60  94 2.62 109 2.62  88 2.63 117 2.64
                            11 3.02
 117  0.878  0.874  0.122-  32 2.54  12 2.56  95 2.57   1 2.60  97 2.63 116 2.64  11 2.67  14 2.72
                           121 2.91 122 3.01
 118  0.876  0.878  0.375-  99 2.51  14 2.56  32 2.59  97 2.59  34 2.61  15 2.62  11 2.66 119 2.67
                            33 2.92 125 3.03
 119  0.747  0.747  0.498-  82 2.58  84 2.59 113 2.63 111 2.63  92 2.64  90 2.66 125 2.66 118 2.67
                            11 2.99
 120  0.747  0.746  0.751- 115 2.54  86 2.57  84 2.59  94 2.61 113 2.63 125 2.64  92 2.65 121 2.68

 121  0.878  0.869  0.881-   1 2.52 100 2.59 116 2.59  36 2.60  12 2.62  17 2.64  95 2.66 120 2.68
                           115 2.89 117 2.91 124 3.07 125 3.08
 122  0.127  0.873  0.123-  12 2.58  59 2.60   1 2.61  38 2.63  32 2.64  57 2.67  40 2.67  14 2.69
                            26 2.96  37 2.99  33 2.99 117 3.01  13 3.01  58 3.04
 123  0.378  0.626  0.373-  83 2.61  89 2.62  59 2.62  91 2.62  52 2.63  81 2.65  53 2.66   9 2.73
                            82 3.00  47 3.00   3 3.06  54 3.09   6 3.09  60 3.10
 124  0.875  0.123  0.880-  12 2.61  95 2.62  19 2.63 101 2.63 100 2.64  17 2.64 106 2.66  24 2.67
                           107 3.00  96 3.06  18 3.06  70 3.07 121 3.07  10 3.09
 125  0.872  0.875  0.626-  34 2.58  99 2.62 100 2.62  36 2.63  17 2.64 120 2.64 119 2.66  15 2.77
                            35 2.99 118 3.03 113 3.04  92 3.06  10 3.07 121 3.08
 126  0.003  0.489  1.000- 107 2.68  25 2.70 109 2.72  26 2.72  20 2.75  31 2.76 115 2.78 102 2.78
                            19 2.99  27 3.02  30 3.04 108 3.10  51 3.12   1 3.14
 127  0.621  0.130  0.623-   4 2.72  75 2.73  77 2.74  69 2.76  99 2.77  68 2.78 106 2.79 100 2.83
                            76 3.02  10 3.04  42 3.05  67 3.07  70 3.11  92 3.13

  LATTYP: Found a triclinic cell.
 ALAT       =    12.0889088634
 B/A-ratio  =     1.4123653354
 C/A-ratio  =     1.0003784144
 COS(alpha) =     0.0000662354
 COS(beta)  =     0.0003254019
 COS(gamma) =     0.7059733845

[...]
    -0.001397384  0.017572180 12.092468779     0.000009572 -0.000120209  0.082696275

  length of vectors
    12.093483480 12.088908863 12.092481627     0.082689167  0.082720805  0.082696363

 FORCES acting on ions
    electron-ion (+dipol)            ewald-force                    non-local-force                 convergence-correction
   0.223E+02 0.107E+03 -.177E+02   -.224E+02 -.108E+03 0.177E+02   0.139E+00 0.467E-01 -.276E-01   -.300E-02 0.162E-02 -.110E-02
   0.701E+02 0.504E+02 -.349E+02   -.701E+02 -.508E+02 0.349E+02   0.253E-01 0.361E+00 0.365E-01   -.843E-03 0.213E-02 0.829E-03
   0.285E+02 -.318E+02 -.436E+02   -.284E+02 0.321E+02 0.434E+02   -.469E-01 -.344E+00 0.197E+00   0.964E-04 0.415E-02 -.778E-03
   -.798E+01 0.134E+03 -.941E+02   0.801E+01 -.133E+03 0.932E+02   -.330E-01 -.113E+01 0.868E+00   0.180E-02 -.509E-03 -.270E-03
   -.913E+02 0.553E+02 -.977E+02   0.904E+02 -.542E+02 0.968E+02   0.870E+00 -.105E+01 0.964E+00   -.214E-02 0.218E-02 0.411E-03
   -.600E+00 -.212E+02 -.388E+02   0.518E+00 0.212E+02 0.387E+02   0.834E-01 -.641E-01 0.102E+00   -.762E-03 -.148E-02 -.180E-02
   0.652E+02 -.920E+02 0.687E+02   -.641E+02 0.906E+02 -.677E+02   -.119E+01 0.133E+01 -.973E+00   0.753E-03 0.147E-02 0.305E-02
   0.832E+02 0.149E+03 0.660E+02   -.822E+02 -.148E+03 -.650E+02   -.106E+01 -.692E+00 -.103E+01   -.371E-03 0.115E-02 0.244E-02
   0.424E+02 -.651E+02 0.299E+02   -.423E+02 0.648E+02 -.298E+02   -.114E+00 0.298E+00 -.106E+00   0.460E-03 -.501E-04 -.113E-02
   0.728E+01 0.126E+02 0.358E+02   -.709E+01 -.127E+02 -.356E+02   -.184E+00 0.967E-01 -.137E+00   0.115E-02 0.385E-04 0.130E-02
   -.252E+02 -.108E+00 -.290E+02   0.253E+02 0.173E+00 0.289E+02   -.147E+00 -.626E-01 0.778E-01   0.486E-03 -.194E-02 -.166E-02
   0.367E+01 -.607E+02 -.326E+02   -.374E+01 0.610E+02 0.319E+02   0.722E-01 -.323E+00 0.688E+00   -.147E-02 -.772E-03 -.216E-02
   0.539E+02 -.738E+02 -.203E+03   -.537E+02 0.739E+02 0.203E+03   -.173E+00 -.104E+00 0.123E+00   -.433E-02 0.835E-03 -.409E-02
   -.104E+03 -.176E+03 -.160E+03   0.103E+03 0.176E+03 0.159E+03   0.832E+00 0.123E+00 0.922E+00   -.313E-02 -.697E-03 -.125E-02
   -.165E+03 -.146E+03 0.919E+02   0.165E+03 0.145E+03 -.916E+02   0.217E+00 0.781E+00 -.310E+00   -.182E-02 0.243E-02 0.190E-02
   -.554E+02 -.139E+01 0.234E+03   0.555E+02 0.116E+01 -.235E+03   -.983E-02 0.228E+00 0.541E+00   -.107E-03 0.193E-02 0.403E-02
   -.205E+01 -.642E+02 0.101E+03   0.204E+01 0.639E+02 -.999E+02   0.144E-01 0.291E+00 -.101E+01   -.192E-03 0.213E-02 0.178E-02
   0.244E+01 -.476E+02 0.364E+02   -.234E+01 0.481E+02 -.367E+02   -.935E-01 -.453E+00 0.243E+00   -.194E-02 -.130E-02 -.328E-02
   -.541E+01 -.127E+03 -.784E+02   0.532E+01 0.127E+03 0.777E+02   0.921E-01 -.482E+00 0.668E+00   -.107E-02 -.162E-02 -.607E-03
   0.178E+03 0.772E+01 -.457E+02   -.179E+03 -.781E+01 0.458E+02   0.338E+00 0.948E-01 -.848E-01   -.237E-02 0.763E-03 0.192E-02
   0.136E+02 0.147E+03 -.635E+01   -.133E+02 -.147E+03 0.623E+01   -.308E+00 -.541E-01 0.118E+00   -.145E-02 0.136E-02 -.900E-04
   -.146E+03 0.131E+03 0.122E+03   0.146E+03 -.130E+03 -.122E+03   0.985E-01 -.102E+01 -.414E-01   -.520E-03 0.520E-03 0.219E-02
   -.425E+02 0.819E+02 0.963E+02   0.428E+02 -.820E+02 -.960E+02   -.346E+00 0.454E-01 -.371E+00   0.337E-03 -.284E-02 0.776E-03
   0.283E+01 -.120E+01 0.635E+02   -.288E+01 0.146E+01 -.632E+02   0.458E-01 -.263E+00 -.250E+00   0.120E-02 -.234E-02 -.203E-02
   0.932E+02 -.422E+02 -.503E+02   -.928E+02 0.421E+02 0.501E+02   -.376E+00 0.131E+00 0.211E+00   -.108E-02 -.277E-02 -.338E-02
   0.895E+02 0.115E+03 -.737E+02   -.894E+02 -.114E+03 0.744E+02   -.951E-01 -.658E+00 -.707E+00   0.988E-03 0.765E-03 0.124E-02
   -.259E+02 0.408E+02 0.140E+02   0.251E+02 -.400E+02 -.145E+02   0.802E+00 -.752E+00 0.488E+00   -.202E-02 0.181E-03 0.136E-02
   -.829E+02 0.886E+01 0.797E+02   0.828E+02 -.866E+01 -.796E+02   0.176E+00 -.201E+00 -.386E-01   -.535E-04 -.225E-02 -.235E-02
   -.507E+02 -.252E+02 0.117E+03   0.507E+02 0.251E+02 -.117E+03   -.264E-01 0.134E+00 0.203E+00   -.375E-03 -.121E-02 0.975E-03
   -.145E+02 0.459E+02 -.563E+02   0.144E+02 -.461E+02 0.565E+02   0.192E+00 0.221E+00 -.267E+00   -.478E-03 -.108E-02 0.239E-03
   0.408E+02 0.109E+03 0.364E+01   -.405E+02 -.108E+03 -.411E+01   -.310E+00 -.383E+00 0.465E+00   0.132E-03 0.222E-02 -.737E-04
   -.420E+01 0.688E+02 -.106E+03   0.365E+01 -.692E+02 0.107E+03   0.557E+00 0.395E+00 -.184E+00   -.201E-02 -.159E-02 -.424E-03
   -.101E+03 -.104E+03 -.113E+03   0.101E+03 0.104E+03 0.113E+03   -.172E+00 0.993E-01 0.169E+00   -.118E-02 -.302E-02 -.647E-03
   -.110E+03 0.110E+02 0.773E+02   0.110E+03 -.117E+02 -.773E+02   -.309E+00 0.679E+00 0.898E-02   -.706E-03 -.792E-03 -.196E-02
   -.995E+02 -.525E+02 0.167E+03   0.993E+02 0.525E+02 -.167E+03   0.163E+00 -.321E-01 -.170E+00   0.432E-05 0.207E-02 0.377E-02
   -.381E+02 0.238E+02 0.481E+02   0.383E+02 -.239E+02 -.482E+02   -.214E+00 0.551E-01 0.778E-01   -.152E-02 0.119E-02 0.338E-02
   -.324E+02 -.286E+02 0.660E+02   0.325E+02 0.284E+02 -.660E+02   -.146E+00 0.163E+00 -.636E-01   -.672E-03 0.163E-02 -.599E-04
   -.557E+01 -.344E+02 0.173E+01   0.575E+01 0.343E+02 -.231E+01   -.181E+00 0.586E-01 0.578E+00   -.273E-02 -.238E-02 -.365E-02
   0.548E+02 0.264E+02 -.722E+02   -.548E+02 -.267E+02 0.723E+02   -.763E-01 0.343E+00 -.131E+00   0.936E-03 -.851E-04 -.334E-03
   0.116E+03 -.117E+03 -.245E+03   -.115E+03 0.116E+03 0.245E+03   -.870E+00 0.830E+00 0.378E+00   -.220E-04 -.105E-02 0.411E-03
   0.206E+03 0.347E+02 -.142E+03   -.206E+03 -.351E+02 0.142E+03   0.412E+00 0.312E+00 0.342E+00   0.333E-02 0.122E-02 0.352E-02
   0.338E+02 0.174E+02 0.142E+03   -.333E+02 -.177E+02 -.142E+03   -.511E+00 0.302E+00 -.136E+00   -.115E-02 0.100E-02 0.217E-03
   -.160E+02 -.237E+02 0.142E+03   0.162E+02 0.235E+02 -.141E+03   -.217E+00 0.127E+00 -.626E+00   -.236E-02 0.146E-02 0.154E-03
   -.320E+01 -.254E+01 0.812E+02   0.320E+01 0.259E+01 -.811E+02   0.179E-02 -.508E-01 -.107E+00   -.310E-02 -.994E-03 -.294E-02
   0.887E+02 0.752E+01 0.828E+01   -.884E+02 -.751E+01 -.857E+01   -.300E+00 -.111E-01 0.298E+00   -.340E-02 -.132E-02 -.188E-02
   0.194E+03 0.135E+03 -.220E+03   -.194E+03 -.135E+03 0.219E+03   -.656E+00 -.180E+00 0.216E+00   -.159E-02 0.202E-02 0.261E-02
   0.126E+03 0.799E+02 -.917E+02   -.126E+03 -.794E+02 0.917E+02   0.117E+00 -.446E+00 0.119E-01   -.109E-02 -.113E-02 0.213E-02
   0.670E+02 0.103E+03 0.635E+02   -.671E+02 -.103E+03 -.633E+02   0.131E+00 -.340E-01 -.245E+00   -.175E-02 -.286E-02 -.244E-03
   -.470E+01 0.329E+02 0.131E+03   0.538E+01 -.332E+02 -.131E+03   -.673E+00 0.247E+00 -.967E-01   -.325E-02 -.165E-02 -.343E-02
   0.376E+02 0.168E+02 0.572E+02   -.380E+02 -.165E+02 -.571E+02   0.367E+00 -.319E+00 -.171E+00   -.112E-02 -.307E-03 -.263E-02
   0.175E+03 0.358E+02 0.412E+02   -.175E+03 -.357E+02 -.409E+02   0.414E+00 -.138E+00 -.392E+00   -.549E-03 0.390E-02 0.899E-03
   0.175E+03 0.203E+02 -.105E+03   -.175E+03 -.200E+02 0.105E+03   -.217E+00 -.320E+00 0.600E+00   -.245E-02 0.227E-02 0.128E-02
   0.865E+02 0.153E+02 0.222E+02   -.865E+02 -.151E+02 -.218E+02   0.282E-01 -.286E+00 -.478E+00   -.200E-02 -.237E-02 -.657E-03
   0.741E+02 -.566E+02 0.706E+02   -.739E+02 0.566E+02 -.706E+02   -.204E+00 0.379E-01 -.483E-01   -.355E-04 0.698E-03 0.269E-03
   0.431E+02 0.192E+02 0.428E+02   -.429E+02 -.192E+02 -.430E+02   -.179E+00 0.912E-02 0.198E+00   -.159E-02 -.155E-02 -.143E-02
   0.298E+02 0.503E+01 0.587E+02   -.299E+02 -.522E+01 -.590E+02   0.995E-01 0.182E+00 0.249E+00   0.570E-03 0.322E-02 0.271E-02
   0.233E+02 -.730E+01 0.237E+02   -.228E+02 0.739E+01 -.233E+02   -.504E+00 -.946E-01 -.384E+00   0.107E-02 0.136E-03 0.224E-03
   0.136E+02 -.445E+02 -.663E+02   -.136E+02 0.447E+02 0.666E+02   -.327E-01 -.227E+00 -.310E+00   0.179E-02 -.538E-02 -.195E-02
   0.821E+02 -.358E+02 -.162E+03   -.818E+02 0.353E+02 0.162E+03   -.299E+00 0.476E+00 0.598E-01   0.495E-03 -.251E-02 -.126E-02
   0.125E+03 -.442E+02 -.132E+03   -.125E+03 0.439E+02 0.132E+03   -.373E+00 0.320E+00 0.264E+00   0.389E-02 -.228E-02 0.120E-02
[...]
   -.379E+02 0.312E+02 -.282E+01   0.378E+02 -.313E+02 0.283E+01   0.673E-01 0.115E+00 -.121E-01   0.101E-02 0.119E-02 0.219E-02
   -.439E+02 0.104E+03 -.330E+02   0.435E+02 -.104E+03 0.328E+02   0.358E+00 -.335E+00 0.248E+00   -.231E-02 0.159E-02 0.199E-02
   -.110E+02 0.740E+01 -.523E+02   0.106E+02 -.724E+01 0.526E+02   0.333E+00 -.157E+00 -.306E+00   0.233E-03 -.119E-02 -.458E-03
   0.438E+02 -.660E+01 -.992E+02   -.437E+02 0.672E+01 0.990E+02   -.762E-01 -.127E+00 0.173E+00   -.100E-02 -.129E-02 -.214E-02
   -.332E+02 -.279E+01 0.632E+01   0.336E+02 0.262E+01 -.606E+01   -.316E+00 0.173E+00 -.264E+00   -.142E-02 -.125E-02 -.146E-02
   -.951E+01 -.309E+02 0.604E+02   0.950E+01 0.311E+02 -.608E+02   0.149E-01 -.132E+00 0.388E+00   -.107E-02 0.359E-03 -.157E-02
   0.125E+02 -.216E+02 0.262E+02   -.127E+02 0.218E+02 -.261E+02   0.180E+00 -.238E+00 -.241E-01   -.180E-03 0.145E-02 0.383E-02
   0.310E+02 -.255E+02 0.317E+02   -.310E+02 0.254E+02 -.315E+02   0.389E-01 0.109E+00 -.180E+00   -.283E-03 0.277E-03 0.494E-03
   -.118E+02 -.607E+02 -.149E+03   0.118E+02 0.606E+02 0.149E+03   0.190E-01 0.110E+00 0.799E-01   -.214E-02 -.261E-02 -.388E-02
   0.129E+03 -.691E+02 -.115E+03   -.129E+03 0.690E+02 0.115E+03   -.137E+00 0.178E+00 -.126E+00   -.414E-03 0.223E-02 -.269E-02
   0.492E+01 -.488E+02 0.763E+02   -.498E+01 0.490E+02 -.764E+02   0.469E-01 -.140E+00 0.107E+00   0.434E-02 -.291E-02 -.150E-02
   -.184E+02 -.109E+03 0.778E+02   0.186E+02 0.109E+03 -.779E+02   -.130E+00 0.132E-01 0.674E-01   -.186E-02 0.209E-02 0.368E-02
   0.431E+01 0.640E+02 -.384E+02   -.438E+01 -.638E+02 0.387E+02   0.825E-01 -.212E+00 -.331E+00   -.351E-02 0.962E-03 0.104E-02
   0.852E+01 0.417E+02 0.638E+00   -.852E+01 -.417E+02 -.657E+00   -.141E-02 -.977E-02 0.200E-01   0.276E-04 -.129E-02 -.150E-02
   -.234E+00 0.720E+00 -.110E+01   0.450E-11 0.171E-12 0.675E-13   0.230E+00 -.715E+00 0.109E+01   0.293E-02 -.714E-03 -.284E-02

 POSITION                                       TOTAL-FORCE (eV/Angst)
      0.01699      9.07337     12.09016        -0.000036     -0.000032     -0.000007
      4.61102      4.53856      1.48537        -0.000212     -0.000254      0.000245
      4.56656      7.56371      1.45527        -0.000021      0.000022      0.000264
      9.08295      3.15999      5.98439        -0.000000      0.000262     -0.000222
      0.27984      2.74355      3.34808         0.000359     -0.000213      0.000229
      1.47879      7.53098      4.50818         0.000234      0.000237      0.000073
      2.82877      0.17395      5.86629         0.000263      0.000485     -0.000410
      2.83157      2.97900      5.87432         0.000043      0.000524     -0.000287
      3.02800      9.16711      6.11261         0.000231      0.000085      0.000112
     10.54791      1.56898      7.54931         0.000043     -0.000174     -0.000030
      9.04508      9.06508      3.04384        -0.000296      0.000346     -0.000275
      0.01331     12.06720      0.05650         0.000489     -0.001199     -0.000056
      1.58069      1.47911      1.41622        -0.000080     -0.000323      0.000132
      0.04528      0.00753      3.12276        -0.000134     -0.000148     -0.000586
      0.03875      0.11072      5.96382         0.000237      0.000660     -0.000456
      1.41089      1.54407      7.74341         0.000091      0.000226     -0.000416
      0.00260     12.06705      9.13046         0.000120      0.000015     -0.000558
      1.54373      1.49565     10.62505         0.000010      0.000008     -0.000470
      0.03782      2.93208      0.09416         0.000265     -0.000466     -0.000001
      1.66673      4.40761      1.63123         0.000286     -0.000374      0.000441
      1.51030      4.74572      4.54881         0.000113     -0.000181      0.000294
      0.05122      3.01026      6.07627         0.000128      0.000469     -0.000119
      1.46815      4.59049      7.58387         0.000422      0.000410      0.000116
      0.00946      3.08852      9.12545         0.000254     -0.000122     -0.000137
      1.65656      4.45900     10.51652         0.000233     -0.000260      0.000214
      1.56503      7.59439      1.51242         0.000005     -0.000284      0.000226
     12.06732      5.94059      3.02252         0.000278     -0.000418      0.000655
     12.03511      6.03058      6.14003         0.000335      0.000101      0.000580
      1.47188      7.56420      7.61845         0.000411      0.000547      0.000121
     12.09111      6.08379      9.06051         0.000203      0.000052      0.000290
      1.57696      7.64952     10.57305        -0.000125     -0.000194      0.000302
     12.01690      9.09845      3.01194        -0.000088      0.000022      0.000003
      1.40935     10.47490      4.49313        -0.000047      0.000744     -0.000370
     12.05053      9.10526      6.09590         0.000147      0.000634      0.000226
      1.44187     10.64979      7.61777         0.000218      0.000624     -0.000220
     12.08651      9.06401      9.08694         0.000192      0.000266     -0.000178
      1.49771     10.56912     10.60422        -0.000024      0.000042     -0.000485
      3.05996     12.09818     12.09974         0.000089     -0.000074     -0.000263
      4.56449      1.50936      1.47174        -0.000490     -0.000371     -0.000150
      2.97515      0.11077      3.02171        -0.000330      0.000176     -0.000225
      4.69404      1.57364      4.42185        -0.000548      0.000234     -0.000304
      4.45167      1.57539      7.56486         0.000079      0.000323     -0.000260
      2.98309      0.03479      9.07321         0.000172      0.000283     -0.000386
      4.52468      1.53117     10.59266         0.000017     -0.000208     -0.000286
      3.10758      3.04042      0.03176         0.000127     -0.000388     -0.000124
      3.10642      3.02822      3.00859        -0.000194      0.000137     -0.000174
      4.56394      4.56631      4.50215        -0.000167      0.000323      0.000291
      4.51814      4.57041      7.53519         0.000357      0.000539      0.000183
      3.00052      3.04901      9.06488         0.000420      0.000164     -0.000161
      4.54989      4.57075     10.56750         0.000252     -0.000254      0.000017
      3.15884      6.04615      0.02461         0.000209     -0.000361      0.000401
      3.14864      6.03370      2.92151         0.000046      0.000168      0.000594
      3.06497      6.05084      6.09809         0.000331      0.000494      0.000374
      4.55861      7.54693      7.60757         0.000309      0.000447      0.000231
      3.02478      6.07675      9.06625         0.000545      0.000345      0.000233
      4.55694      7.58715     10.54540         0.000251     -0.000183      0.000059
      3.08954      9.04091     12.07663         0.000328     -0.000317     -0.000154
      4.56807     10.60457      1.47951        -0.000171      0.000219     -0.000125
      3.10167      9.07550      2.95739         0.000547     -0.000152      0.000575
      4.52912     10.66928      4.40627        -0.000205      0.000795     -0.000302
[...]
     10.57395      7.54993      7.56700         0.000096      0.000418      0.000241
      9.04570      6.09417      9.07805         0.000335      0.000028      0.000345
     10.54739      7.63072     10.57370         0.000259     -0.000256      0.000323
      9.05454      9.02525      0.02305        -0.000247     -0.000360     -0.000071
     10.61219     10.56778      1.48870        -0.000424     -0.000517     -0.000461
     10.59091     10.62357      4.55193        -0.000277      0.000140     -0.000085
      9.03420      9.03763      6.03613        -0.000048      0.000318      0.000408
      9.03395      9.03479      9.09790        -0.000017     -0.000028     -0.000016
     10.61739     10.51704     10.66751        -0.000391     -0.000242     -0.000611
      1.52884     10.55764      1.50379        -0.000753      0.000837     -0.000694
      4.57083      7.57040      4.51566        -0.000471      0.000461     -0.000293
     10.57803      1.49646     10.63957        -0.000805      0.000417     -0.000535
     10.54837     10.58691      7.58570        -0.000126      0.000208     -0.000120
      0.03594      5.93360     12.09744         0.000362     -0.000553      0.000210
      7.50576      1.58464      7.53459        -0.000113     -0.000006      0.000028
    total drift:                               -0.001421      0.003485     -0.011355

  FREE ENERGIE OF THE ION-ELECTRON SYSTEM (eV)
  free  energy   TOTEN  =     -1142.68129236 eV

  energy  without entropy=    -1142.62953321  energy(sigma->0) =    -1142.66403931