 vasp.6.4.2 20Jul23 (build Sep 20 2024 16:56:05) complex
 executed on              LinuxNV date 2025.04.25  15:30:20
 OpenACC runtime initialized ...    4 GPUs detected

 INCAR:
   ENCUT = 520.000000
   POTIM = 0.200000
   SIGMA = 0.200000
   EDIFF = 1.00e-06
   EDIFFG = -1.00e-02
   ALGO = Normal
   GGA = PE
   PREC = Accurate
   IBRION = 2
   ISIF = 2
   ISMEAR = 1
   LORBIT = 11
   NELM = 100
   NSW = -1
   LCHARG = .TRUE.
   LWAVE = .FALSE.
   LREAL = .FALSE.

 POTCAR:    PAW_PBE Cr_pv 02Aug2007
 POTCAR:    PAW_PBE Ti_pv 07Sep2000
 POTCAR:    PAW_PBE V_pv 07Sep2000
 POTCAR:    PAW_PBE W_sv 04Sep2015
 POTCAR:    PAW_PBE Zr_sv 04Jan2005
 POTCAR:    PAW_PBE Cr_pv 02Aug2007
   VRHFIN =Cr : p6d5s1

   TITEL  = PAW_PBE Cr_pv 02Aug2007
   POMASS =   51.996; ZVAL   =   12.000    mass and valenz
   ENMAX  =  265.681; ENMIN  =  199.261 eV

   TITEL  = PAW_PBE Ti_pv 07Sep2000
   POMASS =   47.880; ZVAL   =   10.000    mass and valenz
   ENMAX  =  222.335; ENMIN  =  166.751 eV

   TITEL  = PAW_PBE V_pv 07Sep2000
   POMASS =   50.941; ZVAL   =   11.000    mass and valenz
   ENMAX  =  263.673; ENMIN  =  197.755 eV

   TITEL  = PAW_PBE W_sv 04Sep2015
   POMASS =  183.850; ZVAL   =   14.000    mass and valenz
   ENMAX  =  223.057; ENMIN  =  167.293 eV

   TITEL  = PAW_PBE Zr_sv 04Jan2005
   POMASS =   91.224; ZVAL   =   12.000    mass and valenz
   ENMAX  =  229.898; ENMIN  =  172.424 eV

  PAW_PBE Cr_pv 02Aug2007               :
  PAW_PBE Ti_pv 07Sep2000               :
  PAW_PBE V_pv 07Sep2000                :
  PAW_PBE W_sv 04Sep2015                :
  PAW_PBE Zr_sv 04Jan2005               :

 POSCAR: Cr Ti V  W  Zr
  positions in cartesian coordinates
 exchange correlation table for  LEXCH =        8
   RHO(1)=    0.500       N(1)  =     2000
   RHO(2)=  100.500       N(2)  =     4000

 ion  position               nearest neighbor table
   1  1.000  1.000  0.196-  35 2.51 118 2.53  17 2.53  22 2.55  40 2.57 103 2.58  45 2.59  18 2.60
                            23 2.94 102 2.95  41 2.97  34 3.00 119 3.01  44 3.03
   2  0.394  0.197  0.194-  39 2.51  66 2.56  44 2.56  71 2.59  63 2.60  67 2.61   3 2.62  14 2.64
                            62 2.97  43 2.98  40 3.02  12 3.04  13 3.07
   3  0.593  0.196  0.193-  62 2.51  84 2.51 111 2.54  87 2.54  13 2.61   2 2.62  12 2.71 107 2.72
                            83 2.93  63 3.01  66 3.01  14 3.10 124 3.19
   4  0.800  0.400  0.801- 109 2.46 112 2.48  88 2.49  31 2.54 117 2.62  92 2.63  30 2.63 108 2.64
                            16 3.00  33 3.01  91 3.02 113 3.02
   5  0.999  0.602  0.196-  31 2.63  32 2.66  35 2.67  59 2.68 109 2.68 114 2.68  54 2.69  27 2.71
                            58 2.95 110 2.97  36 2.98  55 2.98 113 3.01  26 3.05
   6  0.989  0.595  0.597- 116 2.63  33 2.68  32 2.69  29 2.69 111 2.69  37 2.70  61 2.74   8 2.82
                           115 2.95 112 2.98
   7  0.199  0.002  0.600-  46 2.63  60 2.63  19 2.67  69 2.67  36 2.68  41 2.68  64 2.69  42 2.70
                            37 2.98  68 2.98  59 2.98  47 3.00  65 3.05
   8  0.203  0.594  0.595-  82 2.63  28 2.63  51 2.66  55 2.69  60 2.70  56 2.73   6 2.82  10 2.82
                            50 2.94  29 3.00  81 3.01  78 3.03
   9  0.401  0.000  0.399-  80 2.66  58 2.66  41 2.67  64 2.69  63 2.71  67 2.73  85 2.74  88 2.75
                            12 2.87  59 2.98  79 3.03  68 3.04
  10  0.442  0.639  0.636-  96 2.56  78 2.62  81 2.63 101 2.73  97 2.79  77 2.81   8 2.82  73 2.82
                            82 2.84
  11  0.411  0.796  0.997-  84 2.62  82 2.63  56 2.66  75 2.67  79 2.71  62 2.75  57 2.82  99 2.87
                            78 2.90  98 2.92  83 2.96
  12  0.588  0.191  0.396-  63 2.63  67 2.64  14 2.70   3 2.71  88 2.76  85 2.77 124 2.80 112 2.82
                             9 2.87  84 2.94   2 3.04
  13  0.600  0.399  0.195-   3 2.61  66 2.64  90 2.65 110 2.69  71 2.69 115 2.70  94 2.70  14 2.71
                           111 2.81  87 2.94 114 2.99  70 2.99   2 3.07
  14  0.592  0.400  0.399-  72 2.62   2 2.64 111 2.68  95 2.68  91 2.69  12 2.70  13 2.71 116 2.73
                            96 2.86  67 2.96  71 2.96   3 3.10
  15  0.802  0.200  0.998- 108 2.56 107 2.60 102 2.66  27 2.67  21 2.68 109 2.70  87 2.71 123 2.75
                           110 2.97  26 3.00 106 3.00  89 3.00  83 3.04
  16  0.800  0.195  0.610- 108 2.50 105 2.62  30 2.65  88 2.66  24 2.76  85 2.76 124 2.76 112 2.77
                            86 2.92  25 2.95   4 3.00
  17  0.999  0.998  0.002-   1 2.53 102 2.54  34 2.57  21 2.60  39 2.61  20 2.62  44 2.62 122 2.68

  18  0.997  0.998  0.393- 104 2.55  23 2.55 119 2.57  41 2.59   1 2.60  36 2.63  46 2.69  19 2.72

[...]

  23  0.011  0.199  0.397-  45 2.47  18 2.55  22 2.56  51 2.58  28 2.67 103 2.70  24 2.73 124 2.73
                             1 2.94
  24  0.008  0.196  0.603-  19 2.51  46 2.53  52 2.59  25 2.62  29 2.67 104 2.70  23 2.73  16 2.76
                            47 2.92 124 3.08
  25  0.001  0.198  0.801-  21 2.59  48 2.60  47 2.61  20 2.61  24 2.62  30 2.64 108 2.65 105 2.66
                            16 2.95
  26  0.002  0.398  1.000-  30 2.54  48 2.61 108 2.61  27 2.62  54 2.62  21 2.64  31 2.65 109 2.68
                            15 3.00   5 3.05
  27  0.009  0.401  0.202-  55 2.49  28 2.53  49 2.55  26 2.62 110 2.63  22 2.64  15 2.67   5 2.71

[...]

  33  0.001  0.604  0.808-  31 2.48  57 2.55 112 2.58 117 2.62  56 2.62  38 2.63  30 2.64   6 2.68
                             4 3.01
  34  0.001  0.801  0.999- 118 2.55  38 2.57  17 2.57  40 2.57  35 2.58  57 2.59 117 2.59  31 2.62
                             1 3.00
  35  0.999  0.808  0.197-   1 2.51  41 2.53  34 2.58 119 2.58  58 2.64  36 2.64 113 2.64   5 2.67
                           118 2.86
  36  0.996  0.796  0.393-  32 2.59 114 2.60 120 2.61  59 2.62  18 2.63  35 2.64  37 2.68   7 2.68
                             5 2.98
  37  0.002  0.807  0.602-  19 2.54  42 2.57  60 2.58 115 2.60 121 2.63  38 2.67  36 2.68   6 2.70
                             7 2.98
  38  0.999  0.803  0.803-  20 2.56 116 2.56  34 2.57  39 2.62  33 2.63  61 2.65  37 2.67 122 2.79

  39  0.200  0.004  0.004-   2 2.51  40 2.58  43 2.59  42 2.59  17 2.61  38 2.62  57 2.64  62 2.66
                            63 2.90
  40  0.196  0.999  0.197-  41 2.57   1 2.57  34 2.57  39 2.58  67 2.60  44 2.61  63 2.62  58 2.64
                             2 3.02
  41  0.195  0.998  0.393-  35 2.53  59 2.57  40 2.57  45 2.57  18 2.59  68 2.65   9 2.67   7 2.68
                             1 2.97
  42  0.198  1.000  0.805-  66 2.54  61 2.57  37 2.57  39 2.59  47 2.61  20 2.62  65 2.64   7 2.70

  43  0.197  0.199  0.999-  21 2.51  66 2.55  48 2.57  39 2.59  44 2.59  71 2.61  20 2.61  47 2.62
                             2 2.98
  44  0.202  0.201  0.199-   2 2.56  22 2.59  43 2.59  72 2.59  49 2.60  40 2.61  45 2.62  17 2.62
                            67 2.89   1 3.03
  45  0.198  0.197  0.396-  23 2.47  67 2.51  41 2.57   1 2.59  44 2.62  46 2.63  50 2.63  73 2.67

[...]

  52  0.202  0.397  0.803-  75 2.53  47 2.57  24 2.59  48 2.61  74 2.62  51 2.63  56 2.65  30 2.66
                            29 2.85
  53  0.201  0.599  0.003-  30 2.55  54 2.56  79 2.58  75 2.60  56 2.62  48 2.63  31 2.63  57 2.65

[...]

  62  0.401  0.004  0.001-   3 2.51  63 2.53  65 2.59  61 2.59  66 2.59  83 2.61  39 2.66  11 2.75
                             2 2.97
  63  0.390  0.994  0.186-  57 2.49  62 2.53   2 2.60  84 2.60  40 2.62  12 2.63  79 2.68   9 2.71
                            39 2.90   3 3.01
  64  0.407  0.005  0.607-  89 2.52  81 2.52  68 2.60  65 2.61  86 2.62  59 2.64   7 2.69   9 2.69
                           123 3.07
  65  0.398  0.001  0.801-  82 2.54  62 2.59  87 2.60  64 2.61  60 2.61  69 2.62  42 2.64 123 2.72
                             7 3.05
  66  0.391  0.198  0.998-  42 2.54  43 2.55   2 2.56  70 2.59  62 2.59  69 2.61  13 2.64  87 2.67
                             3 3.01
  67  0.391  0.204  0.394-  45 2.51  72 2.57  40 2.60   2 2.61  12 2.64  91 2.66  68 2.70   9 2.73
                            44 2.89  14 2.96
  68  0.398  0.198  0.600-  46 2.59  88 2.60  64 2.60  73 2.63  92 2.63  69 2.65  41 2.65  67 2.70
                             7 2.98   9 3.04
  69  0.404  0.205  0.806-  90 2.53  74 2.60  89 2.61  66 2.61  65 2.62  47 2.63  68 2.65   7 2.67

[...]

  81  0.388  0.800  0.588-  64 2.52  80 2.55  55 2.57  60 2.59 123 2.60  10 2.63  82 2.66 101 2.77
                            59 2.87   8 3.01
  82  0.396  0.804  0.795-  65 2.54  61 2.60  11 2.63   8 2.63  81 2.66  83 2.69  98 2.71  78 2.77
                           123 2.82  10 2.84
  83  0.603  0.005  0.006-  98 2.52  84 2.54 107 2.55  87 2.60  62 2.61 123 2.62  82 2.69 102 2.71
                             3 2.93  11 2.96  15 3.04
  84  0.597  0.008  0.199-   3 2.51  83 2.54  63 2.60  11 2.62  85 2.64  99 2.70 124 2.75 103 2.76
                            12 2.94
  85  0.600  0.982  0.391- 100 2.45  79 2.52 104 2.59  84 2.64  86 2.67   9 2.74  16 2.76  12 2.77
                            99 2.88 124 3.21
  86  0.601  0.997  0.600- 101 2.58  64 2.62  80 2.62 108 2.62 105 2.63  85 2.67  88 2.69 123 2.70
                            16 2.92
  87  0.596  0.200  0.001-   3 2.54  65 2.60  83 2.60  89 2.61 110 2.62  66 2.67  90 2.67  15 2.71
                            13 2.94
  88  0.604  0.209  0.617-   4 2.49  89 2.51  91 2.57  68 2.60  16 2.66  86 2.69   9 2.75  12 2.76
                            92 2.88
  89  0.598  0.197  0.802-  88 2.51  64 2.52 109 2.54  69 2.61  87 2.61 108 2.64  92 2.66 123 2.84
                            15 3.00
  90  0.599  0.403  0.994-  92 2.52  69 2.53 114 2.57 109 2.61  70 2.62  13 2.65  93 2.65  87 2.67

[...]

 101  0.603  0.801  0.602- 121 2.57  86 2.58  77 2.62 106 2.63 100 2.66  96 2.69  10 2.73  81 2.77
                           123 2.87 122 2.91
 102  0.805  0.998  0.001- 103 2.54  17 2.54  98 2.59  22 2.59 106 2.60 118 2.61  15 2.66  83 2.71
                           122 2.86   1 2.95 123 2.99
 103  0.801  0.996  0.192- 102 2.54 119 2.57   1 2.58 107 2.64 104 2.69  23 2.70  84 2.76 124 3.20

[...]

 106  0.805  0.001  0.803-  20 2.54 122 2.56  21 2.59 102 2.60 105 2.61 108 2.62 101 2.63 123 2.64
                            15 3.00
 107  0.803  0.200  0.196-  83 2.55  28 2.55  15 2.60 110 2.63  22 2.64 103 2.64 124 2.71   3 2.72

[...]

 112  0.799  0.408  0.614-   4 2.48  33 2.58  91 2.59 116 2.65  16 2.77  12 2.82  29 2.85 117 2.88
                             6 2.98 124 3.13
 113  0.798  0.602  0.998- 118 2.54 109 2.57 117 2.57  92 2.59 114 2.60  93 2.64  35 2.64  31 2.65
                             5 3.01   4 3.02
 114  0.793  0.600  0.194- 119 2.57  90 2.57  94 2.58 113 2.60  36 2.60 115 2.66 110 2.67   5 2.68
                            13 2.99
 115  0.805  0.606  0.402- 111 2.54 120 2.57  32 2.59  37 2.60 114 2.66  95 2.68  13 2.70 116 2.74
                             6 2.95
 116  0.798  0.609  0.610-  96 2.42 121 2.53 117 2.56  38 2.56   6 2.63 112 2.65  14 2.73 115 2.74

 117  0.800  0.602  0.803- 116 2.56  97 2.56 113 2.57  34 2.59  33 2.62   4 2.62  91 2.63 122 2.65
                           112 2.88
[...]
   -.384E+02 0.157E+03 0.194E+02   0.384E+02 -.158E+03 -.191E+02   0.323E-02 0.614E+00 -.243E+00   -.993E-03 0.281E-02 0.915E-03
   0.119E+02 0.945E+02 -.588E+01   -.120E+02 -.948E+02 0.572E+01   0.674E-02 0.239E+00 0.172E+00   -.175E-02 0.370E-02 -.332E-03
   -.519E+02 -.143E+00 0.440E+02   0.522E+02 0.505E+00 -.444E+02   -.289E+00 -.363E+00 0.454E+00   0.219E-02 0.428E-02 0.161E-02
   -.574E+02 0.594E+02 0.336E+02   0.570E+02 -.594E+02 -.339E+02   0.393E+00 -.110E-01 0.240E+00   0.781E-03 0.459E-02 0.263E-02
   -.158E+03 -.583E+02 0.502E+02   0.158E+03 0.582E+02 -.504E+02   -.216E+00 0.135E+00 0.192E+00   0.169E-02 0.268E-02 0.662E-02
   0.400E+02 0.191E+03 -.391E+01   -.402E+02 -.191E+03 0.381E+01   0.134E+00 -.700E+00 0.101E+00   0.795E-03 0.106E-03 0.657E-02
   0.896E+02 0.827E+02 -.139E+02   -.891E+02 -.826E+02 0.140E+02   -.444E+00 -.149E+00 -.431E-01   0.103E-02 0.207E-02 0.321E-02
   -.355E+02 -.711E+02 0.755E+01   0.354E+02 0.711E+02 -.771E+01   0.603E-01 -.284E-02 0.160E+00   0.987E-03 0.145E-02 0.265E-02
   -.219E+02 -.789E+02 0.321E+02   0.218E+02 0.792E+02 -.323E+02   0.846E-01 -.312E+00 0.186E+00   0.327E-02 0.335E-02 0.122E-02
   0.128E+03 0.645E+02 -.880E+02   -.128E+03 -.647E+02 0.885E+02   0.175E+00 0.197E+00 -.493E+00   0.748E-03 -.577E-04 0.398E-02
   0.634E+02 -.238E+01 0.397E+01   -.640E+02 0.297E+01 -.404E+01   0.582E+00 -.609E+00 0.604E-01   -.336E-04 -.109E-02 0.940E-03
   0.487E+02 -.107E+03 0.835E+02   -.485E+02 0.107E+03 -.835E+02   -.135E+00 0.289E+00 -.497E-01   0.744E-03 -.217E-03 -.113E-02
   0.668E+01 -.790E+02 0.136E+02   -.687E+01 0.790E+02 -.138E+02   0.188E+00 0.536E-01 0.184E+00   0.260E-03 0.232E-02 -.314E-02
   0.964E+02 -.415E+02 0.334E+02   -.963E+02 0.413E+02 -.336E+02   -.516E-01 0.185E+00 0.164E+00   -.101E-02 0.534E-03 -.199E-03
   0.106E+03 0.246E+02 0.318E+01   -.106E+03 -.247E+02 -.309E+01   0.170E+00 0.423E-01 -.942E-01   -.975E-03 -.180E-02 0.247E-02
   0.900E+02 -.656E+01 0.202E+02   -.902E+02 0.670E+01 -.203E+02   0.271E+00 -.141E+00 0.247E-01   -.182E-02 -.452E-02 -.346E-03
   0.324E+02 -.126E+03 -.223E+02   -.323E+02 0.126E+03 0.219E+02   -.666E-01 -.923E-02 0.430E+00   -.806E-03 -.483E-02 -.195E-02
   -.628E+01 -.141E+03 -.468E-01   0.667E+01 0.141E+03 0.290E+00   -.385E+00 -.888E-01 -.237E+00   -.158E-02 -.257E-02 -.461E-02
   0.995E+02 0.334E+02 -.146E+02   -.995E+02 -.334E+02 0.144E+02   -.233E-01 -.566E-01 0.146E+00   -.118E-02 -.746E-03 -.224E-02
   0.158E+02 0.197E+02 -.261E+02   -.161E+02 -.197E+02 0.263E+02   0.307E+00 0.865E-01 -.160E+00   -.249E-04 0.525E-04 -.112E-02
   -.522E+02 -.182E+02 -.139E+02   0.518E+02 0.184E+02 0.142E+02   0.403E+00 -.181E+00 -.282E+00   0.235E-02 -.370E-02 0.495E-03
   -.708E+02 -.600E+02 -.373E+02   0.709E+02 0.599E+02 0.375E+02   -.153E+00 0.229E-01 -.218E+00   0.205E-02 -.554E-02 0.157E-02
   0.352E+02 -.218E+02 0.320E+02   -.355E+02 0.218E+02 -.319E+02   0.284E+00 0.790E-02 -.114E+00   0.257E-02 -.124E-02 -.110E-02
   0.633E+02 0.229E+02 -.109E+02   -.636E+02 -.227E+02 0.109E+02   0.270E+00 -.160E+00 0.385E-01   -.100E-02 0.110E-02 -.308E-02
   -.177E+02 0.268E+02 -.243E+02   0.180E+02 -.270E+02 0.244E+02   -.212E+00 0.170E+00 -.130E+00   0.145E-02 0.215E-02 -.884E-03
   -.720E+02 -.338E+01 -.386E+01   0.720E+02 0.346E+01 0.402E+01   -.757E-01 -.860E-01 -.159E+00   0.281E-02 0.204E-02 -.150E-03
   -.188E+03 -.627E+02 -.468E+02   0.189E+03 0.624E+02 0.464E+02   -.419E+00 0.298E+00 0.473E+00   0.306E-02 -.941E-03 0.412E-02
   -.811E+02 0.114E+03 -.102E+03   0.811E+02 -.114E+03 0.102E+03   0.973E-02 -.101E+00 0.406E+00   0.175E-02 -.346E-02 0.450E-02
   -.756E+01 0.718E+02 -.372E+02   0.756E+01 -.724E+02 0.372E+02   0.158E-01 0.592E+00 0.640E-01   0.277E-03 0.372E-04 0.120E-02
   -.541E+01 0.185E+02 -.863E+02   0.551E+01 -.187E+02 0.865E+02   -.109E+00 0.238E+00 -.208E+00   0.119E-02 0.404E-03 -.379E-03
   -.715E+02 0.212E+02 0.138E+02   0.711E+02 -.211E+02 -.137E+02   0.386E+00 -.117E+00 -.965E-01   0.124E-02 0.309E-02 -.138E-02
   -.969E+02 -.815E+02 0.497E+02   0.969E+02 0.812E+02 -.494E+02   -.749E-01 0.260E+00 -.357E+00   0.585E-03 0.396E-02 -.618E-03
   0.629E+01 0.533E+02 -.131E+03   -.540E+01 -.527E+02 0.132E+03   -.902E+00 -.597E+00 -.332E+00   -.916E-03 -.236E-02 0.449E-02
   0.102E+03 -.590E+02 -.565E+02   -.103E+03 0.588E+02 0.563E+02   0.469E+00 0.156E+00 0.203E+00   -.204E-02 -.199E-02 -.817E-03
   -.173E+02 -.837E+02 -.114E+02   0.170E+02 0.834E+02 0.111E+02   0.232E+00 0.285E+00 0.259E+00   -.226E-02 -.193E-03 -.373E-02
   -.387E+01 -.279E+02 0.241E+02   0.404E+01 0.285E+02 -.241E+02   -.164E+00 -.606E+00 -.510E-01   -.192E-02 0.252E-02 -.490E-02
   0.640E+02 -.100E+02 0.682E+02   -.642E+02 0.101E+02 -.683E+02   0.201E+00 -.425E-01 0.164E+00   -.239E-02 0.212E-02 -.343E-02
[...]
   -.907E+02 -.144E+03 0.655E+02   0.908E+02 0.144E+03 -.648E+02   -.802E-01 0.888E+00 -.695E+00   0.388E-02 -.139E-02 0.401E-02
   0.237E+03 0.103E+03 -.721E+02   -.237E+03 -.103E+03 0.724E+02   0.176E+00 0.886E-01 -.308E+00   0.793E-03 -.991E-03 0.576E-02
   -.259E+02 -.371E+02 0.245E+02   0.262E+02 0.374E+02 -.247E+02   -.334E+00 -.389E+00 0.244E+00   0.229E-02 0.523E-03 0.228E-02
   0.172E+02 -.830E+02 0.380E+02   -.169E+02 0.831E+02 -.384E+02   -.219E+00 -.109E+00 0.392E+00   0.361E-02 0.222E-02 0.609E-03
   0.275E+02 -.544E+02 0.730E+02   -.269E+02 0.547E+02 -.730E+02   -.520E+00 -.314E+00 -.266E-01   0.156E-02 0.234E-02 0.224E-02
   0.168E+03 -.346E+01 -.178E+02   -.169E+03 0.388E+01 0.181E+02   0.543E+00 -.409E+00 -.379E+00   0.115E-02 -.273E-02 0.419E-02
   0.324E+02 0.623E+02 -.319E+02   -.327E+02 -.620E+02 0.320E+02   0.267E+00 -.222E+00 -.116E+00   0.295E-02 -.104E-02 0.392E-02
   -.180E+02 0.124E+03 0.842E+02   0.180E+02 -.124E+03 -.838E+02   -.112E-01 -.241E+00 -.396E+00   0.436E-02 -.934E-02 -.320E-02
   -.419E+02 0.698E+02 0.585E+02   0.421E+02 -.687E+02 -.590E+02   -.196E+00 -.116E+01 0.550E+00   -.739E-03 -.126E-02 -.260E-03
   0.730E+01 -.248E+02 0.171E+02   -.725E+01 0.254E+02 -.173E+02   -.577E-01 -.585E+00 0.249E+00   -.177E-02 0.404E-02 -.244E-03
   0.453E+02 -.813E+01 0.302E+02   -.456E+02 0.841E+01 -.300E+02   0.273E+00 -.290E+00 -.158E+00   0.473E-03 0.174E-02 -.841E-03
   -.344E+02 0.123E+03 0.813E+02   0.334E+02 -.122E+03 -.807E+02   0.931E+00 -.102E+01 -.639E+00   0.248E-02 -.471E-02 -.176E-02
   0.740E+02 -.859E+02 0.823E+02   -.735E+02 0.852E+02 -.818E+02   -.549E+00 0.809E+00 -.497E+00   -.702E-02 0.490E-02 -.105E-01
   -.102E+03 -.114E+00 0.497E+02   0.101E+03 0.268E-01 -.495E+02   0.810E+00 0.779E-01 -.134E+00   0.165E-04 0.264E-03 0.400E-02
   -.103E+00 -.364E+00 -.348E+00   0.540E-12 0.136E-11 0.347E-11   0.106E+00 0.361E+00 0.356E+00   0.227E-02 0.108E-02 -.528E-02

 POSITION                                       TOTAL-FORCE (eV/Angst)
      1.43533      1.47780     13.60737         0.008234     -0.017433      0.009536
     -0.04080      2.95976      2.99700        -0.003001      0.005436      0.004540
     -1.56011      4.45932      4.50847        -0.003796      0.005193     -0.007431
      3.01949      9.08004      2.99714        -0.003285      0.002286     -0.003831
     -1.55880      4.47509     10.61621        -0.005281     -0.004922      0.001098
      1.49928      7.49693      7.44118        -0.009085      0.004633      0.002464
      3.04720      6.03060     -3.02545        -0.006899     -0.006022     -0.005243
      7.44698      1.52965      1.49842         0.004352      0.004513      0.026363
     -0.02138      6.05248      0.01443         0.002778     -0.003594     -0.003556
      6.28292      3.31873      3.33899         0.054816      0.051372      0.043899
     10.43927      4.62090      1.54768         0.056133     -0.089403     -0.066599
     -0.02683      6.00031      2.88572        -0.004518      0.001870     -0.012146
     -0.07161      2.99276      6.06650        -0.002444      0.000280     -0.001467
      1.53976      4.46896      4.46945        -0.001480      0.008631      0.005197
      2.98364     12.10564      0.00853        -0.012957      0.009811      0.003977
      0.02305      9.19544      2.90552         0.000669      0.004107     -0.003781
     -0.04132      0.01691     15.06048         0.012359     -0.010793      0.007890
      2.92833      2.96029     12.08274        -0.003025      0.003912      0.005966
      4.51921      4.49915     10.50593        -0.002970      0.000248      0.004507
      6.03012      6.05538      8.97677        -0.005318     -0.000561      0.002771
      1.45015     -1.45449      1.53518         0.003302      0.011763     -0.001251
      2.96390      0.04369     -0.00118         0.004708      0.002074      0.007098
      4.42653      1.58507     -1.43431         0.010932      0.004628      0.008518
      5.98658      3.14251     -3.04121        -0.001637     -0.000333      0.004173
      7.55561      4.56854     -4.57397        -0.001854      0.004270      0.008832
     10.56696      4.55992     -4.56781        -0.004539      0.002785      0.002862
      4.49404     -1.44431      1.55316         0.000184      0.002752      0.001509
     -1.64120      7.51296      7.59508         0.007670      0.003062      0.005185
      7.64582      1.74602     -1.49140        -0.000951      0.004927      0.007473
      9.14209      3.08987     -3.06447        -0.001111      0.003016     -0.000716
      4.45713     10.53078      4.50996        -0.001981     -0.004341     -0.002936
     -0.04716      6.02279      9.06754         0.000224     -0.008401      0.002317
     10.66766      1.54355     -1.56405         0.001434     -0.008721     -0.009620
     13.60114      1.49178     -1.53928         0.011495     -0.016143     -0.004490
     -0.00514      2.93755     12.15328         0.007565     -0.004124     -0.003772
      1.41667      4.48418     10.55574        -0.007552     -0.010524      0.004421
     10.63919     -1.54876      1.52467        -0.007910     -0.003408     -0.003390
      4.55937      7.55669      7.51928        -0.001371     -0.003428     -0.001802
     -1.45666      1.51417      1.51516         0.004401     -0.002489     -0.003288
      7.53772     -4.59412      7.50261         0.001471     -0.005495      0.000896
      9.02286     -3.11955      6.01342         0.002211     -0.004210      0.001828
     12.13053      0.01036      2.92933        -0.002246     -0.007553     -0.005661
      7.57515      7.54381     -4.57824         0.000304      0.001516      0.005033
      1.48465      1.51336      1.53805         0.006294      0.006107      0.007227
      2.98160      3.00363     -0.01457         0.007644      0.005181      0.012590
      4.54896      4.52744     -1.47988        -0.000365      0.004263      0.006674
      6.04490      6.05856     -3.06003         0.000863     -0.002186      0.002968
      1.48017     -1.48741      4.49799        -0.002735      0.000460      0.008389
      3.00614      0.01564      3.01952        -0.003687      0.000598      0.002078
      4.50645      1.50625      1.52314         0.009558      0.001058      0.005852
      5.97713      3.11099     -0.05356        -0.001103     -0.002637      0.007737
      7.54201      4.59222     -1.56938         0.009994      0.009383      0.007288
      3.01034     -2.99695      6.00770        -0.003902      0.003436      0.003238
      4.47757     -1.49827      4.54822        -0.005826     -0.002267      0.001090
      5.98689     -0.11403      3.04400        -0.005378     -0.006382     -0.000950
      9.08109      3.02763     -0.09069        -0.005024     -0.018718     -0.010517
      4.53167     -4.55791      7.52197         0.010299     -0.011901     -0.009179
      5.99808     -3.07234      5.99253         0.002655     -0.003799     -0.004438
      7.60303     -1.54466      4.56414        -0.001182     -0.010157     -0.001688
      9.11480     -0.01897      2.94416         0.000989     -0.000666     -0.006676
[...]
     -1.62265      4.52342      7.64408        -0.001695      0.000488      0.001702
     -0.11250      5.80028      6.10813        -0.003353     -0.004760      0.006308
      1.66500      7.60880      4.46707        -0.001238      0.002470     -0.003996
      6.04404      9.03009      3.00294        -0.004971     -0.005486     -0.001857
     -0.02505      2.92185      9.05476         0.001815      0.002133      0.010273
      1.50731      4.54707      7.60535         0.000220     -0.002643      0.001429
      3.15283      6.03979      6.00706        -0.001877      0.003775      0.004441
      4.54821      7.56554      4.49954        -0.005032     -0.008126      0.000159
     -0.05930      0.08218     12.11891        -0.018214     -0.004008      0.016909
      1.44663      1.47927     10.59273         0.003056     -0.044546      0.001808
      2.94678      2.99718      9.05842        -0.004684     -0.004758      0.008603
      4.53364      4.54580      7.50544        -0.008878     -0.003693      0.003688
      6.14128      5.94995      5.87729         0.027221     -0.044545     -0.024587
      8.88322      3.11792      5.82911        -0.034883      0.031976     -0.026275
     -1.45660      7.63983      4.64584         0.009359     -0.009552     -0.006663
    total drift:                                0.004447     -0.001789      0.003146

  FREE ENERGIE OF THE ION-ELECTRON SYSTEM (eV)
  free  energy   TOTEN  =     -1096.77989601 eV

  energy  without entropy=    -1096.73276644  energy(sigma->0) =    -1096.76418615

 total charge

# of ion       s       p       d       tot
    1        0.424   6.330   4.204  10.958
    2        0.414   6.312   4.188  10.914
    3        0.414   6.306   4.200  10.920
    4        0.423   6.315   4.224  10.962
    5        0.362   6.294   2.115   8.772
    6        0.350   6.271   2.093   8.714
    7        0.361   6.290   2.127   8.778
    8        0.354   6.275   2.100   8.729
    9        0.356   6.282   2.100   8.738
   10        0.338   6.248   2.091   8.677
   11        0.351   6.278   2.082   8.711
   12        0.354   6.268   2.108   8.730
   13        0.364   6.297   2.119   8.779
   14        0.359   6.279   2.121   8.759
   15        0.361   6.301   2.143   8.804
   16        0.359   6.275   2.155   8.789
   17        0.358   6.244   3.053   9.656
   18        0.352   6.233   3.047   9.633
   19        0.356   6.227   3.077   9.660
   20        0.356   6.232   3.069   9.657
   21        0.358   6.236   3.067   9.661
   22        0.356   6.238   3.051   9.645
   23        0.354   6.222   3.086   9.662
   24        0.352   6.225   3.053   9.630
   25        0.354   6.238   3.035   9.627
   26        0.351   6.230   3.048   9.630
   27        0.359   6.225   3.092   9.675
   28        0.350   6.220   3.048   9.617
   29        0.355   6.206   3.111   9.672
   30        0.354   6.227   3.063   9.645
   31        0.356   6.234   3.066   9.657
   32        0.351   6.219   3.060   9.630
   33        0.357   6.231   3.081   9.669
   34        0.359   6.234   3.089   9.682
   35        0.359   6.236   3.069   9.664
   36        0.351   6.228   3.041   9.620
   37        0.352   6.227   3.054   9.632
   38        0.350   6.230   3.035   9.616
   39        0.358   6.245   3.048   9.650
   40        0.356   6.238   3.061   9.654
   41        0.356   6.225   3.084   9.664
   42        0.356   6.232   3.066   9.654
   43        0.360   6.236   3.093   9.690
   44        0.358   6.242   3.050   9.650
   45        0.358   6.238   3.077   9.674
   46        0.358   6.230   3.085   9.673
   47        0.354   6.235   3.043   9.631
   48        0.356   6.241   3.053   9.650
   49        0.360   6.239   3.071   9.670
   50        0.348   6.227   3.023   9.598
   51        0.358   6.219   3.106   9.683
   52        0.358   6.237   3.058   9.653
   53        0.354   6.230   3.067   9.651
   54        0.357   6.228   3.079   9.664
   55        0.356   6.223   3.084   9.663
   56        0.354   6.221   3.089   9.664
   57        0.353   6.227   3.066   9.645
   58        0.353   6.230   3.037   9.619
   59        0.350   6.227   3.034   9.612
   60        0.352   6.219   3.061   9.632
[...]
  110        0.352   6.220   3.061   9.633
  111        0.356   6.209   3.078   9.642
  112        0.341   6.214   3.001   9.556
  113        0.357   6.238   3.065   9.660
  114        0.353   6.224   3.064   9.642
  115        0.350   6.224   3.046   9.620
  116        0.356   6.217   3.116   9.689
  117        0.356   6.241   3.050   9.647
  118        0.375   6.249   3.082   9.706
  119        0.361   6.228   3.091   9.680
  120        0.355   6.231   3.069   9.655
  121        0.357   6.233   3.071   9.660
  122        0.336   6.217   2.995   9.548
  123        2.424   6.245   3.350  12.019
  124        2.259   5.964   1.909  10.131
tot         48.260 773.084 372.0711193.415