 vasp.6.4.2 20Jul23 (build Sep 20 2024 16:56:05) complex
 executed on              LinuxNV date 2024.12.10  16:21:03
 OpenACC runtime initialized ...    4 GPUs detected

 INCAR:
   ENCUT = 520.000000
   POTIM = 0.200000
   SIGMA = 0.200000
   EDIFF = 1.00e-06
   EDIFFG = -1.00e-02
   ALGO = Normal
   GGA = PE
   PREC = Accurate
   IBRION = 2
   ISIF = 2
   ISMEAR = 1
   LORBIT = 11
   NELM = 100
   NSW = -1
   LCHARG = .TRUE.
   LWAVE = .FALSE.
   LREAL = .FALSE.
   NSIM = 128

 POTCAR:    PAW_PBE V_pv 07Sep2000
 POTCAR:    PAW_PBE Cr_pv 02Aug2007
 POTCAR:    PAW_PBE Ti_pv 07Sep2000
 POTCAR:    PAW_PBE V_pv 07Sep2000
   VRHFIN =V: p6 d4 s1

   TITEL  = PAW_PBE V_pv 07Sep2000
   POMASS =   50.941; ZVAL   =   11.000    mass and valenz
   ENMAX  =  263.673; ENMIN  =  197.755 eV

   TITEL  = PAW_PBE Cr_pv 02Aug2007
   POMASS =   51.996; ZVAL   =   12.000    mass and valenz
   ENMAX  =  265.681; ENMIN  =  199.261 eV

   TITEL  = PAW_PBE Ti_pv 07Sep2000
   POMASS =   47.880; ZVAL   =   10.000    mass and valenz
   ENMAX  =  222.335; ENMIN  =  166.751 eV

  PAW_PBE V_pv 07Sep2000                :
  PAW_PBE Cr_pv 02Aug2007               :
  PAW_PBE Ti_pv 07Sep2000               :

 POSCAR: V  Cr Ti
  positions in cartesian coordinates
 exchange correlation table for  LEXCH =        8
   RHO(1)=    0.500       N(1)  =     2000
   RHO(2)=  100.500       N(2)  =     4000

 ion  position               nearest neighbor table
   1  0.008  0.996  0.006-   2 2.55  22 2.61 114 2.61   5 2.62  28 2.63  95 2.64 115 2.68  21 2.91
                           118 3.03
   2  0.993  0.006  0.199-  24 2.28  96 2.50   6 2.51 110 2.54   1 2.55   3 2.57  29 2.57   7 2.86
                            95 2.89
   3  0.008  0.997  0.398-   2 2.57   4 2.61  30 2.64   7 2.64  19 2.65 111 2.67  97 2.70
   4  0.004  0.002  0.599-   8 2.55  25 2.56  98 2.58  31 2.58 112 2.59  20 2.60   3 2.61   5 2.69
                            19 2.90 116 3.00
   5  1.000  0.004  0.804- 118 2.49 116 2.53  27 2.58 113 2.60   1 2.62  26 2.62  21 2.63   4 2.69
                            98 2.88 114 2.91 115 2.92
   6  0.005  0.203  0.199-   2 2.51 115 2.53   9 2.54  28 2.55  34 2.59  99 2.59  95 2.60   7 2.61
                           119 2.93
   7  0.004  0.199  0.399-  35 2.58 100 2.59   6 2.61  10 2.62  96 2.62  29 2.62   8 2.62   3 2.64
                             2 2.86
   8  0.005  0.199  0.601-  30 2.49   4 2.55  97 2.56  36 2.60  11 2.60 116 2.61   7 2.62 122 2.67

   9  0.001  0.397  0.198-  14 2.52 119 2.53   6 2.54 117 2.54  33 2.58  10 2.61  39 2.63 102 2.63
                           101 2.88 115 2.96
  10  0.005  0.402  0.402-  34 2.56  15 2.56  40 2.58  11 2.60 103 2.60   9 2.61   7 2.62  99 2.64

  11  0.003  0.399  0.600-  35 2.57 100 2.59  10 2.60   8 2.60  41 2.61 104 2.62  16 2.64  12 2.69
                           122 3.01
  12  0.008  0.400  0.809-  36 2.52  37 2.53 117 2.56 116 2.57  17 2.63 124 2.66  11 2.69 122 2.69
                            32 2.86 123 2.98
  13  0.004  0.611  0.009-  43 2.54  37 2.62  14 2.63 124 2.65 105 2.66  17 2.66 117 2.71
  14  0.000  0.592  0.203-  18 2.44   9 2.52 101 2.52  15 2.56  38 2.58  44 2.61  13 2.63 106 2.73
                           117 2.94
  15  0.004  0.599  0.403-  19 2.55  16 2.55  14 2.56  10 2.56  39 2.58  45 2.59 102 2.62 107 2.65

  16  0.005  0.603  0.601-  15 2.55  46 2.56  40 2.58 103 2.58  20 2.60  17 2.60 108 2.63  11 2.64

  17  0.002  0.597  0.798-  41 2.53 104 2.57 109 2.58  42 2.59  16 2.60  12 2.63  21 2.64  13 2.66
                           124 2.93
  18  0.950  0.755  0.199-  24 2.18 111 2.38 105 2.42  14 2.44  19 2.44 106 2.47
  19  0.995  0.794  0.411-  20 2.43  18 2.44  15 2.55 112 2.56  25 2.63  44 2.64   3 2.65 106 2.70
                           107 2.85   4 2.90
  20  0.003  0.803  0.603-  19 2.43  26 2.55 113 2.59  16 2.60   4 2.60  45 2.61 107 2.61  21 2.64

[...]

  48  0.414  0.002  0.196-  23 2.41  73 2.45  47 2.54  78 2.59  68 2.62  49 2.68  42 2.70  53 2.74
                            74 2.89  67 2.91  77 2.91
  49  0.390  0.000  0.393-  79 2.48  43 2.51  48 2.68  50 2.68  69 2.69  54 2.70  74 2.70
  50  0.391  0.994  0.597-  25 2.51  44 2.55  70 2.55  51 2.57 120 2.63  55 2.64 121 2.66  49 2.68
                            45 2.88
  51  0.401  0.000  0.800-  47 2.54  50 2.57  45 2.59  71 2.60  76 2.61  26 2.63  56 2.64  75 2.68
                           121 3.02
  52  0.401  0.203  0.998-  56 2.52  53 2.52  57 2.60  81 2.60  26 2.62  47 2.64  76 2.64  27 2.64
                            22 2.87  80 2.90
  53  0.411  0.213  0.198-  52 2.52  23 2.54  58 2.54  77 2.55  82 2.59  54 2.66  22 2.67  28 2.69
                            48 2.74  81 2.81
  54  0.416  0.220  0.407-  23 2.45  83 2.47  59 2.52  78 2.58  29 2.63  53 2.66  55 2.68  79 2.70
                            49 2.70  82 2.87
  55  0.389  0.196  0.595-  79 2.52  30 2.54  60 2.60  56 2.63  50 2.64  54 2.68  84 2.68  29 2.87
                            25 2.89
  56  0.395  0.201  0.801-  52 2.52  80 2.56  25 2.57  31 2.60  61 2.61  55 2.63  51 2.64 121 2.67

[...]

  77  0.605  0.203  0.199-  53 2.55  76 2.56  78 2.59  81 2.59  73 2.61  99 2.61 103 2.62  47 2.65
                           102 2.90  48 2.91
  78  0.606  0.204  0.399-  79 2.51 104 2.58  54 2.58  48 2.59  77 2.59 100 2.61  74 2.63  82 2.65
                           122 2.98
  79  0.578  0.198  0.580-  49 2.48  78 2.51  55 2.52  83 2.54  54 2.70 120 2.70 121 2.72 122 2.79
                           124 2.84
  80  0.596  0.395  0.997- 106 2.55  56 2.56  81 2.59  76 2.61  57 2.61  84 2.64  85 2.66 101 2.73
                           105 2.88  52 2.90 121 2.98
  81  0.600  0.401  0.200-  82 2.58  86 2.59  77 2.59  80 2.59  58 2.60  52 2.60 102 2.61 107 2.61
                           106 2.81  53 2.81
  82  0.607  0.409  0.404- 108 2.58  87 2.58  81 2.58  53 2.59  83 2.60 103 2.62  59 2.65  78 2.65
                            54 2.87 107 2.89
  83  0.603  0.408  0.602-  54 2.47  79 2.54  88 2.55  84 2.59  82 2.60  60 2.62 104 2.64 109 2.80
                           124 3.01
  84  0.594  0.406  0.798- 105 2.43  61 2.52  89 2.53  83 2.59  80 2.64 121 2.67  55 2.68 124 2.71

[...]

  92  0.602  0.803  0.404-  87 2.56 112 2.57  74 2.58  93 2.60  69 2.63  91 2.64  63 2.65  98 2.66
                           120 2.99
  93  0.603  0.802  0.604-  88 2.57  94 2.58  92 2.60  70 2.60 113 2.61 118 2.62  64 2.63 120 2.67
                           114 2.89
  94  0.602  0.800  0.802-  89 2.54 114 2.54  75 2.54  90 2.54  93 2.58  71 2.60  65 2.61  95 2.61
                           118 3.00
  95  0.805  0.002  0.999- 118 2.49 119 2.54   6 2.60  94 2.61  96 2.63   1 2.64  72 2.65 110 2.66
                           114 2.89  75 2.89   2 2.89 115 2.93
  96  0.799  0.002  0.199-   2 2.50  73 2.54 111 2.58  99 2.59  90 2.59   7 2.62  95 2.63  97 2.63

[...]

 101  0.810  0.396  0.007-  14 2.52 119 2.53 117 2.56 102 2.59 105 2.62 121 2.68 124 2.71  80 2.73
                             9 2.88 123 2.95
 102  0.801  0.398  0.203-  99 2.54 106 2.54 103 2.55 101 2.59  76 2.60  81 2.61  15 2.62   9 2.63
                            77 2.90 119 2.99
 103  0.806  0.403  0.403- 104 2.48 102 2.55  16 2.58 100 2.58 107 2.60  10 2.60  77 2.62  82 2.62

[...]

 105  0.785  0.583  0.990-  18 2.42  84 2.43  85 2.58 101 2.62 109 2.64  13 2.66 110 2.68 106 2.70
                           124 2.88  80 2.88
 106  0.788  0.588  0.200-  18 2.47 102 2.54 107 2.54  86 2.55  80 2.55 105 2.70  19 2.70  14 2.73
                           111 2.76  81 2.81
 107  0.801  0.601  0.404- 106 2.54 108 2.56 103 2.60  87 2.61  20 2.61  81 2.61 112 2.64  15 2.65
                            19 2.85  82 2.89
 108  0.805  0.606  0.604- 104 2.55 107 2.56  21 2.57  82 2.58 113 2.58 109 2.62  88 2.63  16 2.63

 109  0.820  0.624  0.815-  17 2.58 114 2.59 108 2.62 105 2.64  89 2.66 124 2.69  21 2.76  83 2.80
                           110 2.81
 110  0.810  0.801  0.004-   2 2.54  89 2.59 114 2.66  95 2.66 105 2.68 111 2.68  90 2.68 109 2.81

[...]

 112  0.799  0.804  0.404- 113 2.54  19 2.56  92 2.57 111 2.57  97 2.59   4 2.59 107 2.64  86 2.64

 113  0.803  0.803  0.601-  98 2.52 112 2.54 114 2.57 108 2.58  87 2.59  20 2.59   5 2.60  93 2.61
                           118 2.99
 114  0.800  0.811  0.800- 118 2.39  94 2.54 113 2.57 109 2.59   1 2.61  21 2.62  88 2.63 110 2.66
                            95 2.89  93 2.89   5 2.91
 115  0.003  0.199  0.003-   6 2.53  27 2.54 118 2.55  33 2.57 119 2.59 117 2.61 116 2.62   1 2.68
                           123 2.78  28 2.92   5 2.92  95 2.93  32 2.95   9 2.96
 116  0.008  0.201  0.804-  31 2.43  32 2.50 123 2.52   5 2.53  98 2.55  12 2.57   8 2.61 115 2.62
                            27 2.91  36 2.99   4 3.00 118 3.04 117 3.04 122 3.12
 117  0.009  0.403  0.007-  38 2.43  32 2.50 123 2.52   9 2.54  12 2.56 101 2.56 115 2.61  13 2.71
                            33 2.94  14 2.94  37 2.99 116 3.04 119 3.05 124 3.13
 118  0.808  1.000  0.808- 114 2.39  95 2.49   5 2.49 123 2.52 115 2.55  75 2.58  98 2.59  93 2.62
                           113 2.99  94 3.00 119 3.01   1 3.03 116 3.04
 119  0.805  0.200  0.006-  99 2.46 123 2.52   9 2.53 101 2.53  95 2.54  75 2.56  76 2.59 115 2.59
                             6 2.93  72 2.99 102 2.99 118 3.01 117 3.05 121 3.15
 120  0.596  0.003  0.598-  50 2.63  74 2.65  69 2.65  93 2.67  75 2.70  79 2.70  98 2.74 123 2.80
                           121 2.96  70 2.98  92 2.99 122 2.99
 121  0.599  0.202  0.796-  76 2.65  50 2.66  56 2.67  84 2.67 101 2.68  79 2.72  75 2.72 123 2.79
                           120 2.96  80 2.98  51 3.02 124 3.04 119 3.15
 122  0.799  0.200  0.598- 100 2.65  74 2.67  98 2.67   8 2.67 104 2.68  12 2.69 123 2.78  79 2.79
                            97 2.96  78 2.98 120 2.99  11 3.01 124 3.04 116 3.12
 123  0.820  0.201  0.819- 119 2.52 117 2.52 116 2.52 118 2.52 115 2.78 122 2.78 121 2.79 120 2.80
                           124 2.83 101 2.95  12 2.98  98 2.98  75 3.00
 124  0.803  0.407  0.801-  13 2.65  12 2.66 104 2.67 109 2.69  84 2.71 101 2.71 123 2.83  79 2.84
                           105 2.88  17 2.93  83 3.01 121 3.04 122 3.04 117 3.13

  LATTYP: Found a base centered monoclinic cell.
 ALAT       =    15.0482117230
 B/A-ratio  =     1.4081981607
 C/A-ratio  =     1.6569313785
 COS(beta)  =    -0.9052205732

  Lattice vectors:

 A1 = (   4.3071057600,   6.1309426610, -10.6177469370)
 A2 = ( -12.9951470410,   0.0135483230,  -0.0223585750)
 A3 = (  13.0316404910,  -0.0404660660,  21.2572762500)

Analysis of symmetry for initial positions (statically):
 Subroutine PRICEL returns:
 Original cell was already a primitive cell.

 Routine SETGRP: Setting up the symmetry group for a
 base centered monoclinic supercell.

 Subroutine GETGRP returns: Found  1 space group operations
 (whereof  1 operations were pure point group operations)
 out of a pool of  4 trial point group operations.

The static configuration has the point symmetry C_1 .

Analysis of symmetry for dynamics (positions and initial velocities):
 Subroutine PRICEL returns:
 Original cell was already a primitive cell.

 Routine SETGRP: Setting up the symmetry group for a
 base centered monoclinic supercell.

[...]
   -.100E+02 0.297E+02 -.243E+02   0.975E+01 -.301E+02 0.242E+02   0.254E+00 0.313E+00 0.156E+00   -.540E-03 0.139E-02 0.641E-03
   -.110E+03 -.113E+03 0.183E+03   0.109E+03 0.112E+03 -.182E+03   0.627E+00 0.511E+00 -.439E+00   0.103E-02 0.857E-03 -.294E-02
   -.479E+02 -.104E+01 0.622E+02   0.486E+02 0.200E+01 -.629E+02   -.669E+00 -.952E+00 0.709E+00   0.923E-04 -.159E-02 0.255E-03
   -.796E+02 0.447E+02 -.732E+01   0.797E+02 -.441E+02 0.737E+01   -.142E+00 -.626E+00 -.520E-01   0.101E-02 -.180E-02 0.179E-02
   -.182E+02 0.135E+03 -.645E+02   0.180E+02 -.134E+03 0.649E+02   0.284E+00 -.870E+00 -.426E+00   -.133E-03 -.273E-02 0.437E-02
   -.967E+02 0.230E+03 -.272E+02   0.959E+02 -.228E+03 0.277E+02   0.827E+00 -.122E+01 -.539E+00   -.732E-03 0.883E-03 0.140E-03
   -.124E+03 0.721E+02 0.118E+03   0.124E+03 -.723E+02 -.118E+03   0.113E+00 0.183E+00 -.338E-01   -.148E-03 0.243E-02 -.445E-02
   -.117E+03 -.659E+01 0.712E+02   0.118E+03 0.680E+01 -.712E+02   -.493E+00 -.214E+00 0.374E-01   -.196E-03 0.156E-02 -.147E-02
   -.495E+02 -.945E+02 -.145E+02   0.497E+02 0.952E+02 0.146E+02   -.156E+00 -.742E+00 -.105E+00   -.739E-03 0.168E-02 -.186E-03
   -.195E+02 -.385E+02 -.785E+02   0.195E+02 0.388E+02 0.786E+02   0.209E-01 -.271E+00 -.526E-01   -.542E-03 -.434E-03 0.388E-02
   -.173E+02 0.516E+02 -.412E+02   0.176E+02 -.518E+02 0.411E+02   -.245E+00 0.185E+00 0.819E-01   0.230E-03 -.234E-02 0.132E-02
   -.177E+02 0.358E+02 0.484E+01   0.174E+02 -.355E+02 -.436E+01   0.261E+00 -.274E+00 -.486E+00   -.294E-03 0.320E-03 -.265E-02
   -.662E+01 -.291E+02 0.408E+02   0.704E+01 0.292E+02 -.409E+02   -.422E+00 -.418E-01 0.100E+00   -.130E-02 0.210E-02 -.278E-02
   0.729E+02 -.837E+02 -.524E+01   -.730E+02 0.841E+02 0.541E+01   0.570E-01 -.389E+00 -.170E+00   -.220E-02 0.195E-02 -.985E-03
   0.272E+02 -.136E+03 -.698E+02   -.270E+02 0.136E+03 0.701E+02   -.271E+00 -.664E-01 -.359E+00   -.149E-02 0.589E-03 0.927E-03
   0.150E+02 -.871E+02 -.276E+02   -.151E+02 0.874E+02 0.275E+02   0.113E+00 -.238E+00 0.129E+00   0.149E-03 -.902E-03 0.764E-03
   0.144E+02 -.179E+02 -.162E+02   -.145E+02 0.180E+02 0.161E+02   0.828E-01 -.871E-01 0.365E-01   0.229E-03 -.208E-02 -.889E-03
   0.493E+02 -.523E+01 -.243E+01   -.488E+02 0.512E+01 0.200E+01   -.548E+00 0.107E+00 0.429E+00   -.847E-03 -.190E-03 -.177E-02
   0.197E+03 0.253E+02 -.298E+02   -.196E+03 -.257E+02 0.295E+02   -.136E+01 0.342E+00 0.294E+00   -.141E-03 0.466E-05 0.533E-03
   0.998E+02 -.671E+02 -.327E+02   -.970E+02 0.648E+02 0.327E+02   -.278E+01 0.234E+01 0.232E-01   0.753E-03 0.612E-03 0.265E-03
   0.492E+02 -.232E+03 -.870E+00   -.485E+02 0.231E+03 0.126E+01   -.672E+00 0.124E+01 -.388E+00   0.665E-03 0.295E-03 -.737E-05
   -.192E+02 -.729E+02 0.181E+02   0.191E+02 0.730E+02 -.182E+02   0.976E-01 -.609E-01 0.157E-01   0.112E-02 -.848E-03 -.193E-02
   0.358E+02 0.129E+02 -.123E+02   -.357E+02 -.125E+02 0.123E+02   -.954E-01 -.379E+00 0.201E-01   -.455E-03 -.278E-02 0.805E-03
   0.204E+02 0.222E+02 -.684E+00   -.198E+02 -.217E+02 0.539E+00   -.614E+00 -.456E+00 0.143E+00   -.987E-03 -.217E-02 0.275E-02
   0.740E+02 0.714E+02 -.453E+02   -.729E+02 -.720E+02 0.454E+02   -.107E+01 0.603E+00 -.154E-01   -.498E-03 0.509E-03 0.179E-02
   0.166E+03 0.172E+02 -.725E+02   -.165E+03 -.179E+02 0.728E+02   -.115E+01 0.659E+00 -.218E+00   0.470E-03 0.167E-02 -.598E-03
   -.359E+02 -.144E+03 0.701E+02   0.359E+02 0.144E+03 -.704E+02   -.496E-01 -.225E-03 0.230E+00   0.651E-03 0.368E-03 -.270E-02
   -.402E+02 -.776E+02 0.667E+02   0.405E+02 0.778E+02 -.667E+02   -.282E+00 -.211E+00 0.181E-01   0.937E-03 -.640E-03 -.607E-03
   -.484E+02 0.452E+01 0.377E+02   0.484E+02 -.466E+01 -.379E+02   -.216E-01 0.132E+00 0.215E+00   0.496E-03 -.987E-03 0.243E-02
   -.144E+02 0.593E+02 -.396E+02   0.143E+02 -.595E+02 0.398E+02   0.180E+00 0.210E+00 -.126E+00   0.853E-03 -.180E-02 0.351E-02
   0.549E+02 0.168E+03 -.458E+02   -.547E+02 -.168E+03 0.469E+02   -.168E+00 0.211E-01 -.103E+01   -.214E-03 0.538E-03 0.202E-03
   -.265E+02 0.131E+03 0.133E+03   0.269E+02 -.131E+03 -.132E+03   -.353E+00 -.332E+00 -.104E+01   0.480E-03 0.252E-02 -.306E-02
   -.116E+03 -.153E+02 0.102E+03   0.116E+03 0.155E+02 -.102E+03   0.250E+00 -.159E+00 0.358E+00   0.117E-02 0.104E-02 -.154E-02
   -.503E+02 -.152E+02 0.248E+02   0.503E+02 0.151E+02 -.248E+02   -.877E-01 0.464E-01 0.193E-02   0.462E-03 0.843E-03 0.699E-03
   -.276E+02 0.574E+01 -.287E+02   0.275E+02 -.579E+01 0.288E+02   0.934E-01 0.484E-01 -.108E+00   0.941E-03 -.123E-02 0.358E-02
   -.192E+02 0.599E+02 -.404E+02   0.194E+02 -.592E+02 0.404E+02   -.172E+00 -.687E+00 0.871E-02   0.209E-03 -.198E-02 0.205E-02
   -.494E+02 0.742E+02 -.223E+01   0.497E+02 -.740E+02 0.232E+01   -.242E+00 -.170E+00 -.838E-01   0.480E-03 0.413E-03 -.330E-02
[...]
   -.831E+02 -.428E+02 -.533E+01   0.819E+02 0.434E+02 0.535E+01   0.121E+01 -.604E+00 -.234E-01   0.973E-03 0.276E-02 0.697E-03
   -.195E+02 -.457E+02 0.129E+02   0.189E+02 0.452E+02 -.128E+02   0.568E+00 0.432E+00 -.105E+00   -.232E-03 0.117E-02 -.716E-03
   -.952E+01 0.242E+02 0.634E+01   0.947E+01 -.246E+02 -.650E+01   0.496E-01 0.398E+00 0.164E+00   -.143E-02 -.267E-02 -.599E-03
   -.980E+02 0.173E+03 -.676E+02   0.982E+02 -.173E+03 0.677E+02   -.266E+00 0.641E+00 -.894E-01   0.325E-03 -.313E-02 -.337E-03
   -.432E+01 0.434E+02 0.804E+01   0.421E+01 -.433E+02 -.827E+01   0.118E+00 -.675E-01 0.234E+00   -.139E-02 -.917E-03 0.126E-02
   0.939E+02 -.697E+02 0.147E+03   -.932E+02 0.698E+02 -.147E+03   -.775E+00 -.814E-01 0.426E+00   -.149E-02 0.214E-02 -.293E-02
   0.131E+03 -.146E+03 0.119E+03   -.131E+03 0.146E+03 -.118E+03   -.954E-01 -.628E+00 -.688E+00   -.226E-02 0.291E-02 -.477E-03
   0.888E+02 -.406E+02 0.126E+03   -.889E+02 0.402E+02 -.126E+03   0.146E+00 0.439E+00 0.459E+00   -.383E-03 -.181E-02 -.174E-02
   0.103E+03 -.593E+02 0.121E+03   -.104E+03 0.587E+02 -.120E+03   0.621E+00 0.590E+00 -.737E+00   -.122E-02 0.325E-03 0.143E-02
   0.362E+02 -.124E+03 -.242E+02   -.360E+02 0.124E+03 0.241E+02   -.208E+00 0.249E+00 0.161E+00   0.231E-03 0.852E-03 -.121E-02
   -.684E+02 -.653E+02 0.114E+03   0.681E+02 0.650E+02 -.114E+03   0.316E+00 0.290E+00 -.217E-01   0.113E-02 0.118E-02 -.939E-03
   0.137E+03 0.152E+02 -.485E+02   -.137E+03 -.150E+02 0.482E+02   -.480E-01 -.262E+00 0.345E+00   -.195E-03 0.239E-02 -.158E-02
   0.197E+03 -.145E+03 0.239E+03   -.197E+03 0.145E+03 -.239E+03   -.109E+00 0.675E-02 -.200E+00   -.104E-02 0.190E-02 -.150E-02
   0.350E+02 0.497E+02 0.725E+02   -.353E+02 -.496E+02 -.724E+02   0.300E+00 -.130E+00 -.356E-01   0.516E-03 0.236E-02 -.151E-02
   0.865E+00 -.574E+00 0.110E+01   0.168E-11 0.725E-12 -.347E-11   -.864E+00 0.578E+00 -.109E+01   -.129E-02 -.393E-02 0.404E-02

 POSITION                                       TOTAL-FORCE (eV/Angst)
     -4.24788     12.16240      0.04154        -0.000643     -0.009969     -0.003021
     12.01336     -1.16325      2.13943         0.002122     -0.009408     -0.001627
     -5.94482      9.77106      4.19989        -0.004637     -0.001520      0.001524
     -2.52962     -3.64884      6.35600        -0.003796     -0.001814      0.004884
      9.51245     -4.90217      8.56373         0.003978     -0.003024      0.003704
     -1.67833      1.25977      2.11017         0.000766     -0.004164     -0.000166
     -2.52932     -0.00433      4.23391         0.001477      0.000286     -0.001074
     -3.38637     -1.24405      6.37734        -0.001024      0.001555      0.001382
     -2.55809      3.64391      2.09133         0.001641      0.003634      0.003374
     -3.40840      2.46004      4.25707        -0.000441      0.002999     -0.003982
     -4.27134      1.20481      6.36102        -0.001179      0.002880      0.000909
     -5.11496     -0.05853      8.58410        -0.001225      0.006862     -0.004029
     -2.63677      7.42987      0.07640        -0.000638      0.006034     -0.002991
     -3.43909      6.00363      2.13835         0.002495      0.014814     -0.003567
     -4.29243      4.86714      4.26733         0.000866      0.005709     -0.004735
     -5.14601      3.69502      6.36828        -0.000948      0.001217     -0.000507
     -6.00291      2.41123      8.46406         0.002225     -0.000732     -0.003467
      8.20151      8.01833      2.11975        -0.024221      0.011512     -0.005692
      7.70853      7.19570      4.36816        -0.000477      0.001535      0.001541
     -6.04759      6.13125      6.38791        -0.000612     -0.000997      0.001112
     -6.94632      4.88097      8.52834         0.002919      0.000108      0.000194
     -1.61687     -5.98311     10.52460         0.000834     -0.003475      0.003801
      2.15952     -0.72520      2.12543        -0.012662     -0.017362     -0.000532
     -3.47532      9.77175      2.08917         0.008158     -0.020877     -0.000697
      0.02796     -3.64333      6.37323        -0.000155      0.002284     -0.003247
     -5.20436      7.33859      8.46898         0.000544      0.001725      0.000864
      1.70007      2.46368      0.01766        -0.000298     -0.000875     -0.000723
      0.87413      1.33643      2.13110         0.000798     -0.008403     -0.000734
      0.08838     -0.09338      4.20066         0.000778     -0.005387      0.002309
     -0.89520     -1.17750      6.40631        -0.001627     -0.000035      0.002454
     -1.79706     -2.45676      8.51992         0.005395     -0.001898      0.000185
     -3.48108     -1.26734     10.58918         0.001981     -0.000883      0.004513
      0.01873      3.64299      2.11830        -0.003163      0.002179     -0.000614
     -0.84764      2.44000      4.25641         0.001799     -0.000226     -0.002890
     -1.70519      1.23890      6.34342        -0.001038      0.000703      0.000137
     -2.59467      0.03668      8.49185        -0.001398     -0.006218      0.002064
     -4.32112      1.25475     10.59825        -0.000995     -0.005001     -0.002778
     -0.85693      6.04184      2.05187        -0.001148      0.009262      0.004718
     -1.71055      4.89633      4.24825        -0.001215      0.002068     -0.003466
     -2.56428      3.67498      6.37525        -0.000822      0.001027     -0.002632
     -3.46945      2.46194      8.49826         0.002037      0.000159     -0.003194
     -5.32284      3.72791     10.59406         0.006719     -0.000001     -0.006880
     -1.57234      8.52674      2.09914         0.019312      0.007983     -0.000061
     -2.66165      7.41946      4.18432         0.001773      0.002798      0.000013
     -3.43956      6.13635      6.35228        -0.001000      0.001119     -0.000770
     -4.33377      4.87324      8.49585         0.003061      0.004085     -0.003958
     -3.41460      6.13229     10.55259         0.002294      0.001195      0.000986
      4.52931     -1.17827      2.08999        -0.005394     -0.001206      0.000481
      3.38099     -2.41092      4.17709         0.005827      0.001845      0.007770
     -1.80896      8.51205      6.32980         0.004450      0.000673      0.001372
      1.76569     -4.90607      8.50329         0.001626      0.003987      0.000392
      0.03634     -3.63695     10.59697        -0.000912     -0.000807      0.004082
      3.56461      1.38582      2.10958        -0.003107     -0.007908      0.001775
      2.69963      0.19354      4.32713         0.003764     -0.003319      0.000052
      1.64185     -1.24991      6.31831         0.004544      0.002282      0.000622
      0.80613     -2.45000      8.50859         0.000373      0.001690     -0.002472
     -0.87979     -1.20775     10.60194        -0.001729     -0.003735      0.003337
      2.59936      3.73457      2.12277        -0.001448     -0.005463      0.000286
      1.71944      2.51283      4.27393         0.002834     -0.001972     -0.000590
      0.85279      1.22416      6.35854         0.002736      0.001884      0.000064
[...]
      7.02955      9.77383      0.03853        -0.006343     -0.001312     -0.004099
      5.88152      8.55897      2.13644        -0.012609      0.001057     -0.001818
      5.15943      7.35588      4.28578        -0.002748     -0.002682      0.001808
      4.35866      6.14692      6.37595        -0.000098     -0.001937      0.004576
      3.42937      5.01867      8.49210         0.000551     -0.005965     -0.001036
     -0.83623      2.42162      0.02245         0.003993     -0.005791      0.005805
     -4.22371     -2.47005      8.52841         0.000372     -0.000754      0.001635
     -1.66723      4.89769      0.06719        -0.001996      0.004383      0.002300
      2.67895      7.28346      8.56906         0.000413     -0.002588      0.001964
      9.56730      2.39855      0.07962         0.001671      0.000697      0.004688
      5.16227     -3.63709      6.35829         0.004385      0.000313      0.005611
      3.47634     -2.41737      8.46458         0.003170      0.000828      0.003950
      6.94052     -1.23131      6.36270         0.004199      0.002462      0.005213
      6.25443     -2.56301      8.70490        -0.003155      0.000538     -0.002246
      5.22449      0.06669      8.50839        -0.000321     -0.004376     -0.000580
    total drift:                               -0.000756      0.000414      0.009118

  FREE ENERGIE OF THE ION-ELECTRON SYSTEM (eV)
  free  energy   TOTEN  =     -1099.82262214 eV

  energy  without entropy=    -1099.81905741  energy(sigma->0) =    -1099.82143390

 total charge

# of ion       s       p       d       tot
    1        0.338   6.215   3.010   9.563
    2        0.383   6.230   3.194   9.807
    3        0.336   6.208   3.002   9.546
    4        0.360   6.244   3.065   9.669
    5        0.359   6.251   3.043   9.653
    6        0.363   6.241   3.101   9.705
    7        0.355   6.241   3.041   9.637
    8        0.359   6.234   3.085   9.678
    9        0.361   6.250   3.072   9.683
   10        0.359   6.243   3.063   9.665
   11        0.354   6.236   3.052   9.642
   12        0.358   6.230   3.071   9.660
   13        0.337   6.207   3.007   9.551
   14        0.361   6.233   3.117   9.710
   15        0.359   6.234   3.094   9.688
   16        0.359   6.237   3.073   9.669
   17        0.366   6.234   3.070   9.670
   18        0.398   6.227   3.296   9.921
   19        0.373   6.231   3.129   9.734
   20        0.361   6.238   3.102   9.700
   21        0.355   6.222   3.025   9.602
   22        0.378   6.235   3.153   9.766
   23        0.396   6.231   3.277   9.904
   24        0.358   6.155   3.405   9.919
   25        0.355   6.215   3.057   9.627
   26        0.359   6.238   3.091   9.688
   27        0.362   6.244   3.095   9.701
   28        0.364   6.238   3.129   9.731
   29        0.337   6.210   3.007   9.555
   30        0.368   6.235   3.091   9.694
   31        0.361   6.244   3.081   9.686
   32        0.361   6.251   3.059   9.670
   33        0.364   6.252   3.088   9.704
   34        0.359   6.243   3.064   9.666
   35        0.362   6.237   3.095   9.693
   36        0.358   6.243   3.073   9.674
   37        0.356   6.241   3.052   9.648
   38        0.361   6.239   3.092   9.692
   39        0.357   6.241   3.044   9.642
   40        0.359   6.241   3.077   9.677
   41        0.361   6.236   3.099   9.697
   42        0.336   6.209   3.008   9.554
   43        0.381   6.228   3.187   9.795
   44        0.336   6.205   3.022   9.563
   45        0.358   6.243   3.041   9.643
   46        0.358   6.242   3.060   9.660
   47        0.359   6.234   3.092   9.685
   48        0.363   6.233   3.108   9.704
   49        0.339   6.205   3.025   9.569
   50        0.366   6.215   3.113   9.694
   51        0.355   6.233   3.066   9.653
   52        0.360   6.242   3.071   9.673
   53        0.366   6.249   3.081   9.696
   54        0.376   6.239   3.114   9.730
   55        0.351   6.207   3.044   9.602
   56        0.358   6.234   3.075   9.667
   57        0.360   6.240   3.069   9.669
   58        0.362   6.243   3.085   9.690
   59        0.360   6.237   3.096   9.693
   60        0.356   6.241   3.041   9.639
[...]
  110        0.340   6.212   3.004   9.556
  111        0.364   6.232   3.130   9.726
  112        0.357   6.232   3.090   9.678
  113        0.360   6.237   3.098   9.695
  114        0.372   6.248   3.089   9.709
  115        0.417   6.341   4.144  10.901
  116        0.427   6.321   4.250  10.997
  117        0.424   6.317   4.241  10.981
  118        0.429   6.319   4.270  11.018
  119        0.427   6.321   4.247  10.994
  120        0.360   6.276   2.130   8.766
  121        0.357   6.273   2.123   8.753
  122        0.358   6.281   2.113   8.752
  123        0.371   6.300   2.157   8.828
  124        0.356   6.282   2.091   8.728
tot         44.864 773.680 382.9951201.540