 vasp.6.4.2 20Jul23 (build Sep 20 2024 16:56:05) complex
 executed on              LinuxNV date 2024.12.10  17:42:12
 OpenACC runtime initialized ...    4 GPUs detected

 INCAR:
   ENCUT = 520.000000
   POTIM = 0.200000
   SIGMA = 0.200000
   EDIFF = 1.00e-06
   EDIFFG = -1.00e-02
   ALGO = Normal
   GGA = PE
   PREC = Accurate
   IBRION = 2
   ISIF = 2
   ISMEAR = 1
   LORBIT = 11
   NELM = 100
   NSW = -1
   LCHARG = .TRUE.
   LWAVE = .FALSE.
   LREAL = .FALSE.
   NSIM = 32

 POTCAR:    PAW_PBE V_pv 07Sep2000
 POTCAR:    PAW_PBE Cr_pv 02Aug2007
 POTCAR:    PAW_PBE Ti_pv 07Sep2000
 POTCAR:    PAW_PBE V_pv 07Sep2000
   VRHFIN =V: p6 d4 s1

   TITEL  = PAW_PBE V_pv 07Sep2000
   POMASS =   50.941; ZVAL   =   11.000    mass and valenz
   ENMAX  =  263.673; ENMIN  =  197.755 eV

   TITEL  = PAW_PBE Cr_pv 02Aug2007
   POMASS =   51.996; ZVAL   =   12.000    mass and valenz
   ENMAX  =  265.681; ENMIN  =  199.261 eV

   TITEL  = PAW_PBE Ti_pv 07Sep2000
   POMASS =   47.880; ZVAL   =   10.000    mass and valenz
   ENMAX  =  222.335; ENMIN  =  166.751 eV

  PAW_PBE V_pv 07Sep2000                :
  PAW_PBE Cr_pv 02Aug2007               :
  PAW_PBE Ti_pv 07Sep2000               :

 POSCAR: V  Cr Ti
  positions in cartesian coordinates
 exchange correlation table for  LEXCH =        8
   RHO(1)=    0.500       N(1)  =     2000
   RHO(2)=  100.500       N(2)  =     4000

 ion  position               nearest neighbor table
   1  0.009  0.006  0.010-   2 2.56  28 2.56 115 2.57  22 2.58  95 2.61 114 2.61   5 2.62  24 2.64
                           118 2.98
   2  0.999  0.005  0.203- 110 2.55   6 2.55  96 2.56   1 2.56  29 2.56   3 2.56  24 2.68  23 2.79
                            18 2.79   7 2.89
   3  0.007  0.001  0.401-   2 2.56   4 2.58   7 2.61  30 2.62 111 2.65  97 2.66  19 2.67  18 2.82

   4  0.004  0.001  0.598-  25 2.56   8 2.56  98 2.58   3 2.58  31 2.58  20 2.59 112 2.60   5 2.68
                           116 3.01
   5  0.001  0.004  0.805- 118 2.51 116 2.53  27 2.57  26 2.60  21 2.61 113 2.61   1 2.62   4 2.68
                            98 2.89 114 2.92 115 2.94
   6  0.006  0.203  0.201- 115 2.54   2 2.55   9 2.56  28 2.57  34 2.58   7 2.59  95 2.60  99 2.60
                           119 2.95
   7  0.003  0.199  0.398- 100 2.58  29 2.59   6 2.59  96 2.59  35 2.60   3 2.61  10 2.61   8 2.63
                             2 2.89
   8  0.005  0.199  0.601-  30 2.50   4 2.56  97 2.57  36 2.60  11 2.61 116 2.62   7 2.63 122 2.67

   9  0.001  0.397  0.198- 117 2.53 119 2.53   6 2.56  14 2.58  33 2.59  10 2.61  39 2.63 102 2.64
                           101 2.88 115 2.95
  10  0.005  0.402  0.401-  15 2.56  34 2.57  40 2.59 103 2.60   9 2.61   7 2.61  11 2.61  99 2.64

  11  0.003  0.400  0.601-  35 2.58  41 2.60 100 2.60 104 2.60   8 2.61  10 2.61  16 2.63  12 2.68
                           122 3.00
  12  0.009  0.402  0.810-  36 2.53  37 2.54 117 2.57 116 2.59  17 2.64  11 2.68 124 2.68 122 2.69
                            32 2.87 123 2.99
  13  0.006  0.606  0.011-  43 2.54  14 2.58  37 2.61 117 2.61 105 2.62  24 2.65  17 2.65 124 2.67

[...]

  21  0.004  0.805  0.807-  46 2.58  22 2.58 108 2.59   5 2.61 114 2.61  17 2.63  20 2.64 109 2.86

[...]

  27  0.200  0.201  0.003- 115 2.54  28 2.56  22 2.56   5 2.57  32 2.58  31 2.58  58 2.61  52 2.62
                           116 2.93
  28  0.206  0.206  0.203-  33 2.52  23 2.53  27 2.56   1 2.56   6 2.57  59 2.57  29 2.62  53 2.63
                           115 2.97
  29  0.202  0.196  0.400-   2 2.56   7 2.59  60 2.60  30 2.62  28 2.62  54 2.66  34 2.66  23 2.83
                            55 2.85
  30  0.201  0.207  0.605-   8 2.50  55 2.54  35 2.55  61 2.57   3 2.62  31 2.62  29 2.62  25 2.64

[...]

  53  0.406  0.207  0.197-  52 2.53  58 2.56  77 2.57  22 2.60  54 2.60  28 2.63  82 2.63  48 2.66
                            81 2.89  23 2.91
  54  0.413  0.216  0.402-  23 2.43  83 2.53  59 2.53  78 2.58  53 2.60  29 2.66  55 2.69  79 2.71
                            49 2.72  82 2.90
  55  0.388  0.195  0.593-  79 2.51  30 2.54  60 2.60  50 2.64  56 2.65  54 2.69  84 2.71  29 2.85
                            25 2.89
  56  0.395  0.201  0.801-  52 2.54  25 2.58  80 2.59  31 2.59  61 2.60  51 2.62  55 2.65 121 2.67

[...]

  72  0.599  0.998  0.998-  75 2.52  73 2.57  76 2.58  71 2.58  90 2.58  47 2.60  99 2.61  95 2.63
                           119 2.99
  73  0.603  0.001  0.198-  48 2.54  74 2.55  96 2.57  72 2.57 100 2.61  91 2.61  77 2.61  67 2.61

[...]

  78  0.606  0.203  0.397-  79 2.52  77 2.57  54 2.58  48 2.58 100 2.60 104 2.61  74 2.63  82 2.65
                           122 2.99
  79  0.577  0.197  0.578-  49 2.45  55 2.51  78 2.52  83 2.53  54 2.71 120 2.72 121 2.73 122 2.80
                           124 2.84
  80  0.599  0.397  0.998- 106 2.56  56 2.59  81 2.59  76 2.61  84 2.62  57 2.62  85 2.64 101 2.70
                           121 2.97
  81  0.600  0.402  0.200-  82 2.58  86 2.58  58 2.59  80 2.59  77 2.59 102 2.60  52 2.60 107 2.61
                           106 2.88  53 2.89
  82  0.607  0.409  0.403-  87 2.57  81 2.58 108 2.60 103 2.61  83 2.62  53 2.63  59 2.65  78 2.65
                           107 2.87  54 2.90
  83  0.603  0.408  0.603-  54 2.53  79 2.53  88 2.55  84 2.60  60 2.62  82 2.62 104 2.64 109 2.74
                           124 2.99
  84  0.595  0.408  0.799-  89 2.51  61 2.51  83 2.60 105 2.60  80 2.62 121 2.67 124 2.69  55 2.71
                            85 2.92
  85  0.599  0.601  0.000-  61 2.58  62 2.58 111 2.59  90 2.59  89 2.60 105 2.61  86 2.61  80 2.64
                            84 2.92
  86  0.598  0.600  0.200-  63 2.55 106 2.57  81 2.58  57 2.59  87 2.59  91 2.60  85 2.61 112 2.62

[...]

 104  0.805  0.409  0.596- 103 2.49 108 2.54  11 2.60  17 2.61  78 2.61  83 2.64 124 2.67 122 2.69
                            16 2.91
 105  0.800  0.598  0.003- 106 2.60  84 2.60  85 2.61  13 2.62 109 2.62 110 2.63  18 2.63 101 2.65
                           124 2.98
 106  0.793  0.593  0.199-  80 2.56 102 2.57  86 2.57 107 2.60 105 2.60  19 2.62  14 2.65 111 2.66
                            18 2.85  81 2.88
 107  0.800  0.600  0.403- 108 2.57 103 2.59 106 2.60  87 2.60  81 2.61  20 2.62 112 2.64  15 2.65
                            19 2.87  82 2.87
 108  0.806  0.607  0.605- 104 2.54 113 2.57 107 2.57  21 2.59  82 2.60  16 2.61  88 2.62 109 2.62

 109  0.814  0.619  0.813-  17 2.58 114 2.59  89 2.61 108 2.62 105 2.62 124 2.66  83 2.74  21 2.86
                           110 2.91  24 2.92
 110  0.806  0.804  0.008-   2 2.55 111 2.60  90 2.61  89 2.61 105 2.63  95 2.63  24 2.64 114 2.66
                           109 2.91
 111  0.795  0.800  0.203-  91 2.52  18 2.52 112 2.57  85 2.59 110 2.60  96 2.61   3 2.65 106 2.66

 112  0.799  0.803  0.402-  19 2.56  92 2.56 111 2.57 113 2.57  97 2.58   4 2.60  86 2.62 107 2.64

 113  0.803  0.803  0.602-  98 2.52 108 2.57 112 2.57  20 2.59  87 2.60  93 2.60   5 2.61 114 2.61
                           118 2.98
 114  0.805  0.812  0.806- 118 2.40  94 2.57 109 2.59 113 2.61   1 2.61  21 2.61 110 2.66  88 2.67
                            95 2.90   5 2.92
 115  0.004  0.200  0.004-   6 2.54  27 2.54  33 2.56   1 2.57 118 2.58 119 2.60 116 2.61 117 2.62
                           123 2.78  95 2.94   5 2.94   9 2.95  32 2.95  28 2.97
 116  0.009  0.201  0.805-  31 2.43  32 2.50 123 2.53   5 2.53  98 2.56  12 2.59 115 2.61   8 2.62
                            27 2.93  36 3.00   4 3.01 118 3.04 117 3.05 122 3.13
 117  0.009  0.405  0.009-  38 2.44  32 2.50 123 2.52   9 2.53 101 2.57  12 2.57  13 2.61 115 2.62
                            33 2.94  14 2.98  37 2.99 119 3.05 116 3.05 124 3.15
 118  0.808  0.999  0.807- 114 2.40  95 2.50   5 2.51 123 2.53 115 2.58  98 2.58  75 2.59  93 2.61
                           113 2.98   1 2.98  94 2.99 119 3.02 116 3.04
 119  0.805  0.200  0.007-  99 2.44 123 2.51  95 2.52   9 2.53  75 2.57 101 2.57  76 2.59 115 2.60
                             6 2.95  72 2.99 102 2.99 118 3.02 117 3.05 121 3.16
 120  0.596  0.002  0.597-  50 2.63  74 2.66  69 2.66  93 2.67  75 2.70  79 2.72  98 2.73 123 2.81
                           121 2.98  70 2.99  92 2.99 122 3.00  49 3.02
 121  0.599  0.203  0.796-  50 2.64  56 2.67  76 2.67  84 2.67 101 2.69  75 2.73  79 2.73 123 2.80
                            80 2.97 120 2.98 124 3.01  51 3.02 119 3.16
 122  0.799  0.201  0.599- 100 2.66   8 2.67  74 2.67  98 2.68 104 2.69  12 2.69 123 2.79  79 2.80
                            97 2.97  78 2.99 120 3.00  11 3.00 124 3.03 116 3.13
 123  0.820  0.201  0.819- 119 2.51 117 2.52 116 2.53 118 2.53 115 2.78 122 2.79 121 2.80 120 2.81
                           124 2.83 101 2.98  98 2.99  12 2.99  75 3.00
 124  0.801  0.406  0.800- 109 2.66 104 2.67  13 2.67  12 2.68  84 2.69 101 2.70 123 2.83  79 2.84
                            17 2.95 105 2.98  83 2.99 121 3.01 122 3.03 117 3.15

  LATTYP: Found a base centered monoclinic cell.
 ALAT       =    15.0482117230
 B/A-ratio  =     1.4081981607
 C/A-ratio  =     1.6569313785
 COS(beta)  =    -0.9052205732

  Lattice vectors:

 A1 = (   4.3071057600,   6.1309426610, -10.6177469370)
 A2 = ( -12.9951470410,   0.0135483230,  -0.0223585750)
 A3 = (  13.0316404910,  -0.0404660660,  21.2572762500)

Analysis of symmetry for initial positions (statically):
 Subroutine PRICEL returns:
 Original cell was already a primitive cell.

 Routine SETGRP: Setting up the symmetry group for a
 base centered monoclinic supercell.

 Subroutine GETGRP returns: Found  1 space group operations
 (whereof  1 operations were pure point group operations)
 out of a pool of  4 trial point group operations.

The static configuration has the point symmetry C_1 .

Analysis of symmetry for dynamics (positions and initial velocities):
 Subroutine PRICEL returns:
 Original cell was already a primitive cell.

 Routine SETGRP: Setting up the symmetry group for a
 base centered monoclinic supercell.

 Subroutine GETGRP returns: Found  1 space group operations
 (whereof  1 operations were pure point group operations)
 out of a pool of  4 trial point group operations.

The dynamic configuration has the point symmetry C_1 .

 Subroutine INISYM returns: Found  1 space group operations
 (whereof  1 operations are pure point group operations),
 and found     1 'primitive' translations

                                     Primitive cell

  volume of cell :    1689.3617

  direct lattice vectors                    reciprocal lattice vectors
    12.995147041 -0.013548323  0.022358575     0.076899476  0.027363571  0.046994778
    -4.344442071 12.248515902 -0.022934774     0.000004010  0.081732338  0.047195846
    -4.307105760 -6.130942661 10.617746937    -0.000161924  0.000118924  0.094184924

  length of vectors
    12.995173338 12.996185776 12.995236356     0.094184943  0.094380205  0.094185138

  position of ions in fractional coordinates (direct lattice)
     0.008842646  0.005994915  0.009815621
     0.999276549  0.004851264  0.202711449
     0.007236484  0.000955508  0.401152913
     0.004019305  0.000985417  0.598318341
     0.001489367  0.003536834  0.804837210
     0.005802911  0.202778338  0.200919361
     0.003059405  0.199153345  0.398113569
[...]
   -.770E+01 0.472E+02 0.323E+02   0.762E+01 -.474E+02 -.346E+02   0.890E-01 0.230E+00 0.548E+00   0.109E-02 -.154E-02 -.385E-03
   -.109E+03 -.114E+03 0.184E+03   0.108E+03 0.113E+03 -.183E+03   0.670E+00 0.569E+00 -.800E+00   0.192E-02 -.886E-03 0.330E-02
   -.520E+02 -.925E+01 0.496E+02   0.523E+02 0.965E+01 -.495E+02   -.276E+00 -.398E+00 -.124E+00   0.766E-03 0.149E-02 0.244E-02
   -.916E+02 0.256E+02 -.527E+01   0.917E+02 -.255E+02 0.553E+01   -.118E+00 -.899E-01 -.231E+00   -.457E-03 0.425E-02 0.160E-02
   -.413E+02 0.110E+03 -.821E+02   0.416E+02 -.110E+03 0.825E+02   -.309E+00 -.852E-01 -.349E+00   0.323E-03 0.530E-02 -.298E-03
   -.102E+03 0.237E+03 -.327E+02   0.102E+03 -.236E+03 0.330E+02   0.192E+00 -.137E+01 -.193E+00   -.220E-03 0.575E-02 0.767E-04
   -.124E+03 0.737E+02 0.110E+03   0.124E+03 -.740E+02 -.110E+03   0.815E-01 0.206E+00 -.152E+00   -.328E-02 0.395E-02 0.535E-02
   -.115E+03 -.112E+02 0.675E+02   0.116E+03 0.114E+02 -.674E+02   -.350E+00 -.166E+00 -.130E+00   -.253E-02 0.312E-02 0.408E-02
   -.567E+02 -.815E+02 -.992E+01   0.569E+02 0.821E+02 0.998E+01   -.242E+00 -.544E+00 -.496E-01   -.368E-03 0.591E-03 0.450E-03
   -.266E+02 -.356E+02 -.793E+02   0.266E+02 0.356E+02 0.794E+02   0.864E-03 -.111E-01 -.970E-01   -.249E-03 0.257E-02 -.265E-04
   -.164E+02 0.435E+02 -.462E+02   0.166E+02 -.436E+02 0.461E+02   -.231E+00 0.159E+00 0.109E+00   -.457E-03 0.318E-02 -.622E-03
   -.120E+02 0.344E+02 0.984E+00   0.117E+02 -.342E+02 -.623E+00   0.255E+00 -.194E+00 -.346E+00   -.213E-02 0.224E-02 0.185E-02
   -.128E+02 -.224E+02 0.449E+02   0.131E+02 0.225E+02 -.449E+02   -.367E+00 -.665E-01 0.484E-01   -.164E-02 0.802E-04 0.123E-02
   0.427E+02 -.587E+02 -.595E+01   -.425E+02 0.588E+02 0.605E+01   -.139E+00 -.187E+00 -.733E-01   0.173E-02 -.316E-02 0.151E-02
   0.154E+02 -.120E+03 -.792E+02   -.153E+02 0.120E+03 0.794E+02   -.972E-01 -.235E+00 -.144E+00   0.225E-02 -.150E-02 -.786E-03
   0.109E+02 -.795E+02 -.320E+02   -.110E+02 0.797E+02 0.318E+02   0.647E-01 -.182E+00 0.184E+00   0.346E-02 -.158E-02 -.144E-02
   0.132E+02 -.160E+02 -.145E+02   -.133E+02 0.160E+02 0.144E+02   0.119E+00 -.552E-01 0.121E+00   0.215E-02 -.183E-02 -.526E-04
   0.317E+02 -.189E+01 0.136E+02   -.314E+02 0.195E+01 -.137E+02   -.330E+00 -.674E-01 0.144E+00   0.204E-02 -.314E-02 -.651E-03
   0.724E+02 0.140E+02 -.180E+02   -.716E+02 -.142E+02 0.175E+02   -.669E+00 0.153E+00 0.487E+00   0.319E-02 -.211E-02 0.222E-02
   0.115E+03 -.890E+02 -.123E+03   -.115E+03 0.887E+02 0.122E+03   -.226E-01 0.403E+00 0.893E+00   0.476E-02 -.297E-02 -.689E-03
   0.485E+02 -.244E+03 -.937E+01   -.484E+02 0.243E+03 0.947E+01   -.830E-01 0.138E+01 -.357E-01   0.483E-02 -.246E-02 -.136E-02
   -.147E+02 -.720E+02 0.157E+02   0.146E+02 0.720E+02 -.155E+02   0.743E-01 0.385E-01 -.156E+00   0.374E-02 -.221E-02 0.797E-03
   0.768E+01 0.281E+01 0.474E+01   -.751E+01 -.264E+01 -.470E+01   -.178E+00 -.133E+00 -.386E-01   0.318E-02 -.115E-02 0.365E-03
   0.125E+01 0.537E+01 -.603E-01   -.117E+01 -.519E+01 0.205E+00   -.124E+00 -.188E+00 -.112E+00   0.399E-02 0.103E-02 0.267E-02
   0.603E+02 0.463E+02 -.696E+02   -.603E+02 -.464E+02 0.695E+02   -.188E+00 0.938E-01 0.838E-01   0.478E-02 -.132E-03 0.116E-02
   0.173E+03 0.165E+02 -.768E+02   -.171E+03 -.169E+02 0.768E+02   -.124E+01 0.258E+00 0.367E-01   0.563E-02 -.180E-02 -.169E-03
   -.381E+02 -.147E+03 0.665E+02   0.381E+02 0.147E+03 -.666E+02   -.477E-01 -.267E-01 0.169E+00   0.625E-02 -.153E-02 0.351E-02
   -.471E+02 -.765E+02 0.586E+02   0.473E+02 0.765E+02 -.584E+02   -.256E+00 -.220E-01 -.188E+00   0.467E-02 0.695E-03 0.247E-02
   -.546E+02 -.298E+01 0.366E+02   0.547E+02 0.295E+01 -.366E+02   -.132E+00 -.112E-02 0.893E-01   0.165E-02 0.235E-02 0.254E-02
   -.114E+02 0.646E+02 -.499E+02   0.110E+02 -.651E+02 0.501E+02   0.264E+00 0.338E+00 -.188E+00   0.246E-02 0.266E-02 0.141E-02
   0.426E+02 0.154E+03 -.608E+02   -.424E+02 -.154E+03 0.617E+02   -.252E+00 -.532E-01 -.103E+01   0.428E-02 0.398E-02 0.121E-03
   -.268E+02 0.134E+03 0.129E+03   0.271E+02 -.134E+03 -.128E+03   -.318E+00 -.370E+00 -.130E+01   0.406E-02 0.138E-02 0.414E-02
   -.118E+03 -.170E+02 0.949E+02   0.118E+03 0.171E+02 -.953E+02   0.263E+00 -.138E+00 0.424E+00   0.257E-02 0.154E-02 0.461E-02
   -.553E+02 -.138E+02 0.281E+02   0.554E+02 0.138E+02 -.281E+02   -.143E+00 0.360E-01 0.540E-01   -.611E-03 0.139E-02 0.117E-02
   -.345E+02 0.405E+01 -.307E+02   0.345E+02 -.418E+01 0.308E+02   0.422E-02 0.949E-01 -.121E+00   -.363E-04 0.171E-02 0.378E-03
   -.285E+02 0.581E+02 -.483E+02   0.288E+02 -.576E+02 0.483E+02   -.264E+00 -.532E+00 -.133E-01   0.840E-03 0.361E-02 -.725E-04
   -.543E+02 0.744E+02 -.202E+01   0.545E+02 -.742E+02 0.226E+01   -.195E+00 -.243E+00 -.235E+00   0.312E-03 0.437E-02 0.229E-02
[...]
   -.670E+02 -.194E+02 -.254E+02   0.669E+02 0.193E+02 0.254E+02   0.238E+00 0.321E-01 0.123E+00   -.574E-02 -.155E-02 -.266E-02
   -.173E+02 -.394E+02 0.464E+01   0.170E+02 0.389E+02 -.467E+01   0.398E+00 0.486E+00 0.665E-02   -.562E-02 -.155E-02 -.202E-02
   -.561E+01 0.142E+02 0.252E+02   0.561E+01 -.146E+02 -.253E+02   0.178E-01 0.355E+00 0.741E-01   -.478E-02 0.521E-03 -.285E-02
   -.602E+02 0.142E+03 -.108E+02   0.600E+02 -.143E+03 0.103E+02   0.260E+00 0.238E+00 0.590E+00   -.456E-02 0.127E-02 -.264E-02
   0.690E+01 0.550E+01 0.136E+02   -.699E+01 -.538E+01 -.138E+02   0.114E+00 -.120E+00 0.230E+00   -.241E-02 0.381E-02 -.153E-03
   0.935E+02 -.776E+02 0.152E+03   -.927E+02 0.777E+02 -.152E+03   -.816E+00 -.128E+00 0.371E+00   -.259E-02 0.298E-02 0.521E-03
   0.121E+03 -.110E+03 0.125E+03   -.121E+03 0.110E+03 -.124E+03   -.531E-01 -.672E+00 -.694E+00   0.590E-03 -.807E-03 -.462E-03
   0.100E+03 -.591E+02 0.142E+03   -.100E+03 0.584E+02 -.143E+03   -.386E-01 0.660E+00 0.324E+00   -.446E-02 0.307E-02 -.284E-02
   0.114E+03 -.762E+02 0.127E+03   -.115E+03 0.758E+02 -.126E+03   0.650E+00 0.473E+00 -.691E+00   -.188E-02 0.106E-02 -.829E-03
   0.339E+02 -.125E+03 -.285E+02   -.337E+02 0.124E+03 0.284E+02   -.164E+00 0.257E+00 0.106E+00   0.207E-02 -.137E-02 0.111E-02
   -.704E+02 -.618E+02 0.110E+03   0.701E+02 0.616E+02 -.110E+03   0.242E+00 0.224E+00 -.168E+00   0.288E-02 -.571E-03 0.200E-02
   0.137E+03 0.198E+02 -.454E+02   -.137E+03 -.195E+02 0.450E+02   -.927E-01 -.269E+00 0.372E+00   0.114E-03 -.647E-03 0.626E-03
   0.198E+03 -.143E+03 0.243E+03   -.198E+03 0.143E+03 -.242E+03   -.143E+00 0.101E+00 -.174E+00   -.112E-02 -.368E-04 -.202E-03
   0.355E+02 0.819E+02 0.861E+02   -.357E+02 -.818E+02 -.860E+02   0.158E+00 -.214E+00 -.582E-01   0.798E-03 -.322E-02 -.384E-03
   0.988E+00 -.760E+00 0.217E+00   0.116E-11 0.114E-11 -.190E-11   -.971E+00 0.756E+00 -.210E+00   -.621E-02 0.602E-02 -.117E-02

 POSITION                                       TOTAL-FORCE (eV/Angst)
      0.04659      0.01313      0.10428        -0.065112      0.118617      0.069181
     12.09157     -1.19693      2.17457         0.112985     -0.055800      0.003584
     -1.63792     -2.44784      4.25948        -0.060119      0.052888      0.045673
     -2.52907     -3.65624      6.35286         0.001895     -0.018906      0.006380
     -3.46253     -4.89111      8.54551         0.028168     -0.005344      0.008947
     -1.67093      1.25183      2.12879         0.011679     -0.015708      0.039334
     -2.54017     -0.00152      4.22257        -0.011385      0.000570     -0.004586
     -3.39352     -1.24476      6.38096        -0.017128      0.001761      0.012958
     -2.56170      3.65069      2.09121        -0.003090      0.007661      0.003324
     -3.41366      2.46004      4.25177        -0.012579      0.008129     -0.010836
     -4.28472      1.20841      6.37312        -0.027413      0.009011      0.021187
     -5.11937     -0.04416      8.58782        -0.004570      0.029635      0.004923
     -2.59581      7.34807      0.10616         0.043962     -0.081970      0.060462
     -3.47366      6.06001      2.15762        -0.065918      0.116854      0.040465
     -4.29610      4.86182      4.25361        -0.011782      0.023005     -0.018794
     -5.15856      3.69106      6.38442        -0.019975     -0.001824      0.027897
     -6.03608      2.43491      8.53243        -0.071126      0.059996      0.122097
      8.50117      8.36875      2.33547         0.511274      0.624897      0.086575
      7.71017      7.20538      4.30892         0.035154      0.059120     -0.151860
     -6.04602      6.13410      6.38445         0.004102      0.008526     -0.008968
     -6.92212      4.90708      8.55461         0.060613      0.060177      0.019718
      2.62917      0.04713      0.02586        -0.077967     -0.132361      0.112908
      1.87610     -1.04931      2.33510        -0.477273     -0.562026      0.051044
     -3.46608      9.80361      0.58262         0.008264      0.053431     -1.762046
      0.02760     -3.64515      6.35718        -0.001282      0.006273     -0.052073
     -5.20455      7.33685      8.48166         0.002105      0.001847      0.014504
      1.71177      2.44197      0.03129         0.015003     -0.028505      0.029245
      0.90190      1.27691      2.15852         0.054245     -0.123680      0.057001
      0.04590     -0.05801      4.25037        -0.075212      0.046595      0.074657
     -0.89912     -1.17936      6.42477        -0.015666      0.004534      0.038256
     -1.78975     -2.46585      8.52227         0.012858     -0.013476      0.003399
     -3.47817     -1.26320     10.59711         0.002874      0.003942      0.019014
      0.02411      3.63977      2.12031         0.006412      0.000922      0.000552
     -0.84641      2.45291      4.25798         0.002103      0.022707     -0.000609
     -1.70943      1.24210      6.35022        -0.011660      0.005801      0.016650
     -2.59119      0.03474      8.50041         0.002476     -0.003682      0.019633
      0.00732      7.37729     -0.00406         0.030790     -0.014283      0.027090
     -0.86503      6.05291      2.07172        -0.012935      0.029429      0.049861
     -1.71558      4.88338      4.25045        -0.009738     -0.021313     -0.003242
     -2.57034      3.67638      6.38127        -0.013177      0.004461      0.006252
     -3.47392      2.46059      8.49842        -0.007292     -0.005685      0.000725
     -0.89937      9.83314      0.03236         0.145859     -0.033944      0.083736
     -1.67231      8.55148      2.14055        -0.141488      0.045486     -0.003621
     -2.63003      7.37703      4.23258         0.066121     -0.070820      0.069130
     -3.44408      6.13517      6.35078        -0.015414      0.002384      0.000067
     -4.34369      4.89219      8.49732        -0.005477      0.028086     -0.002234
     -3.44476      6.13188     10.56862        -0.039649     -0.003125      0.035035
      4.42994     -1.17235      2.10968        -0.176396      0.004625      0.053534
     -0.92975      9.80354      4.18679         0.053986     -0.068734      0.040233
     -1.80834      8.51279      6.35419         0.013570     -0.006188      0.042846
      1.75264     -4.89587      8.50574        -0.015108      0.020780      0.002973
      0.02110     -3.65705     10.60687        -0.024086     -0.032510      0.025021
      3.53121      1.32710      2.09551        -0.066173     -0.117801     -0.021787
      2.69493      0.17501      4.27004        -0.030708     -0.071721     -0.122140
      1.63986     -1.24866      6.29667        -0.007901     -0.004184     -0.049796
      0.80490     -2.45126      8.51102        -0.003504     -0.003256     -0.006828
     -0.87119     -1.21510     10.61214         0.011835     -0.014877      0.016910
      2.60503      3.71821      2.11952         0.008399     -0.033020      0.001032
      1.72339      2.51624      4.26084         0.013167     -0.024752     -0.012548
      0.85806      1.22585      6.35793         0.014842      0.001710      0.006778
[...]
      6.94605      9.79104      0.08398        -0.101990      0.017658      0.069575
      5.99004      8.54392      2.15037         0.184726     -0.024489      0.038909
      5.15889      7.35515      4.26779         0.027673     -0.001866     -0.025316
      4.36113      6.13617      6.38789         0.010435     -0.021773      0.024444
      3.46085      4.99514      8.55230         0.074273     -0.063998      0.115363
     -0.83074      2.42479      0.03710         0.015822      0.002710      0.032561
     -4.22210     -2.47766      8.53981         0.001888     -0.009935      0.018846
     -1.67346      4.90386      0.08207        -0.011689      0.012315      0.030939
      2.67962      7.26961      8.56736        -0.000688     -0.028115      0.000334
      9.56519      2.39459      0.08895        -0.000690     -0.004868      0.020005
      5.16895     -3.64399      6.35387         0.023499     -0.013390      0.006514
      3.46943     -2.40895      8.46445        -0.007134      0.011615      0.003263
      6.93496     -1.22500      6.37070        -0.007277      0.009981      0.013438
      6.25365     -2.56893      8.71440        -0.000261     -0.002774      0.016116
      5.20237      0.05505      8.50145        -0.024123     -0.029828     -0.007566
    total drift:                                0.010741      0.002250      0.005793

  FREE ENERGIE OF THE ION-ELECTRON SYSTEM (eV)
  free  energy   TOTEN  =     -1103.58556192 eV

  energy  without entropy=    -1103.58392874  energy(sigma->0) =    -1103.58501752

 total charge

# of ion       s       p       d       tot
    1        0.357   6.238   3.057   9.653
    2        0.369   6.232   3.091   9.692
    3        0.349   6.212   3.029   9.590
    4        0.360   6.241   3.070   9.671
    5        0.358   6.247   3.050   9.655
    6        0.363   6.245   3.083   9.691
    7        0.358   6.239   3.059   9.656
    8        0.358   6.233   3.078   9.668
    9        0.360   6.249   3.060   9.669
   10        0.359   6.242   3.059   9.660
   11        0.354   6.234   3.051   9.638
   12        0.356   6.231   3.057   9.644
   13        0.353   6.228   3.045   9.627
   14        0.360   6.237   3.091   9.688
   15        0.360   6.235   3.090   9.685
   16        0.357   6.238   3.060   9.655
   17        0.354   6.227   3.060   9.640
   18        0.359   6.210   3.095   9.664
   19        0.372   6.233   3.124   9.729
   20        0.359   6.236   3.087   9.682
   21        0.350   6.228   3.027   9.605
   22        0.358   6.237   3.077   9.672
   23        0.359   6.210   3.100   9.668
   24        0.360   6.223   3.070   9.653
   25        0.352   6.214   3.049   9.614
   26        0.357   6.239   3.060   9.655
   27        0.362   6.249   3.074   9.685
   28        0.363   6.242   3.101   9.705
   29        0.352   6.216   3.035   9.602
   30        0.370   6.235   3.102   9.707
   31        0.360   6.243   3.079   9.683
   32        0.360   6.248   3.056   9.665
   33        0.363   6.250   3.073   9.686
   34        0.360   6.242   3.073   9.676
   35        0.360   6.236   3.085   9.681
   36        0.358   6.242   3.067   9.667
   37        0.356   6.241   3.066   9.663
   38        0.360   6.242   3.077   9.679
   39        0.358   6.241   3.053   9.652
   40        0.359   6.239   3.076   9.673
   41        0.360   6.237   3.080   9.676
   42        0.354   6.230   3.053   9.637
   43        0.364   6.227   3.081   9.673
   44        0.351   6.211   3.050   9.612
   45        0.358   6.241   3.049   9.649
   46        0.358   6.238   3.069   9.665
   47        0.359   6.239   3.071   9.669
   48        0.357   6.236   3.065   9.658
   49        0.352   6.204   3.060   9.616
   50        0.367   6.215   3.123   9.705
   51        0.355   6.232   3.064   9.651
   52        0.360   6.240   3.071   9.670
   53        0.360   6.243   3.067   9.670
   54        0.373   6.242   3.103   9.718
   55        0.349   6.206   3.037   9.591
   56        0.357   6.234   3.064   9.655
   57        0.358   6.240   3.061   9.660
   58        0.361   6.242   3.081   9.684
   59        0.360   6.237   3.091   9.688
   60        0.356   6.239   3.048   9.643
[...]
  110        0.354   6.232   3.043   9.629
  111        0.358   6.235   3.083   9.677
  112        0.358   6.233   3.085   9.676
  113        0.358   6.237   3.086   9.681
  114        0.360   6.238   3.079   9.677
  115        0.418   6.341   4.154  10.912
  116        0.424   6.316   4.245  10.986
  117        0.424   6.317   4.245  10.986
  118        0.427   6.319   4.254  10.999
  119        0.426   6.318   4.248  10.992
  120        0.358   6.275   2.121   8.754
  121        0.356   6.272   2.120   8.749
  122        0.356   6.278   2.107   8.741
  123        0.369   6.296   2.150   8.816
  124        0.355   6.277   2.096   8.728
tot         44.724 773.752 381.5621200.038