 vasp.6.4.2 20Jul23 (build Sep 20 2024 16:56:05) complex
 executed on              LinuxNV date 2025.02.09  17:36:12
 OpenACC runtime initialized ...    4 GPUs detected

 INCAR:
   PREC = Accurate
   ENCUT = 520
   EDIFF = 1e-06
   ISMEAR = 1
   SIGMA = 0.2
   NSW = 0
   IBRION = -1
   LWAVE = .FALSE.
   LCHARG = .TRUE.
   LREAL = .FALSE.
   ALGO = Normal

 POTCAR:    PAW_PBE V_pv 07Sep2000
 POTCAR:    PAW_PBE Cr_pv 02Aug2007
 POTCAR:    PAW_PBE Ti_pv 07Sep2000
 POTCAR:    PAW_PBE V_pv 07Sep2000
   VRHFIN =V: p6 d4 s1

   TITEL  = PAW_PBE V_pv 07Sep2000
   POMASS =   50.941; ZVAL   =   11.000    mass and valenz
   ENMAX  =  263.673; ENMIN  =  197.755 eV

   TITEL  = PAW_PBE Cr_pv 02Aug2007
   POMASS =   51.996; ZVAL   =   12.000    mass and valenz
   ENMAX  =  265.681; ENMIN  =  199.261 eV

   TITEL  = PAW_PBE Ti_pv 07Sep2000
   POMASS =   47.880; ZVAL   =   10.000    mass and valenz
   ENMAX  =  222.335; ENMIN  =  166.751 eV

  PAW_PBE V_pv 07Sep2000                :
  PAW_PBE Cr_pv 02Aug2007               :
  PAW_PBE Ti_pv 07Sep2000               :

 POSCAR: V  Cr Ti
  positions in direct lattice
  velocities in cartesian coordinates
 exchange correlation table for  LEXCH =        8
   RHO(1)=    0.500       N(1)  =     2000
   RHO(2)=  100.500       N(2)  =     4000

 ion  position               nearest neighbor table
   1  0.005  0.006  0.004- 116 2.54  29 2.57   2 2.58  23 2.58  96 2.59   5 2.59 115 2.60  18 2.60
                           119 2.93
   2  0.001  0.001  0.200- 111 2.57  97 2.57   1 2.58   6 2.58   3 2.59  19 2.59  30 2.59  24 2.59

   3  1.000  0.001  0.399-  25 2.58  98 2.58 112 2.58   2 2.59   7 2.60   4 2.60  31 2.61  20 2.61

   4  0.002  1.000  0.600-  99 2.54  26 2.55  21 2.58   8 2.59 113 2.59  32 2.60   3 2.60   5 2.63
                           117 2.99
   5  0.001  0.005  0.804- 117 2.51 119 2.51   1 2.59  28 2.59  22 2.61  27 2.61   4 2.63 114 2.63
                            99 2.87 116 2.95
   6  0.005  0.201  0.200- 116 2.54  29 2.57  35 2.58   2 2.58   9 2.59  96 2.59 100 2.60   7 2.60
                           120 2.93
   7  0.002  0.201  0.399- 101 2.56  30 2.57  97 2.60  10 2.60  36 2.60   3 2.60   6 2.60   8 2.64

[...]

   9  0.001  0.398  0.197- 118 2.51 120 2.51   6 2.59  34 2.59  40 2.61  10 2.61  14 2.63 103 2.63
                           102 2.87 116 2.95
  10  0.003  0.401  0.400-  35 2.57  15 2.59   7 2.60  41 2.60 104 2.60   9 2.61 100 2.62  11 2.62

  11  0.002  0.400  0.601-  36 2.58  42 2.60 105 2.60 101 2.61   8 2.61  16 2.62  10 2.62  12 2.67
                           123 2.99
  12  0.010  0.401  0.809-  38 2.54  37 2.54 118 2.58 117 2.58  17 2.67  11 2.67 123 2.71 125 2.71
                            33 2.87 124 3.00
  13  0.005  0.602  0.004-  44 2.55  14 2.59  38 2.59 118 2.61  17 2.61 106 2.61  18 2.64 125 2.67

[...]

  84  0.600  0.406  0.599-  80 2.49  89 2.54  61 2.61  83 2.61  55 2.64 105 2.64  85 2.64 110 2.64
                           125 3.01
  85  0.595  0.409  0.802-  90 2.51  62 2.51 106 2.60  81 2.60  84 2.64  56 2.64 125 2.69 122 2.69
                            86 2.91
  86  0.602  0.602  0.002-  87 2.59 112 2.59  91 2.59  63 2.59  90 2.61  62 2.61 106 2.62  81 2.62
                            85 2.91
  87  0.601  0.601  0.200-  88 2.58  82 2.58  86 2.59  92 2.59  58 2.60  64 2.60 113 2.60 107 2.60

[...]

 105  0.803  0.409  0.594- 109 2.51 104 2.51  17 2.60  11 2.60  84 2.64  79 2.64 123 2.69 125 2.69
                            16 2.91
 106  0.803  0.601  0.001-  19 2.58 107 2.60  85 2.60 110 2.61  13 2.61  86 2.62 111 2.62 102 2.67
                           125 2.99
 107  0.801  0.601  0.200-  14 2.59 103 2.59 108 2.59  20 2.59 106 2.60  81 2.60 112 2.60  87 2.60

[...]

 113  0.801  0.802  0.400- 108 2.59 114 2.59   4 2.59  20 2.59  98 2.60  93 2.60  87 2.60 112 2.60

 114  0.802  0.800  0.600-  99 2.54 109 2.55  21 2.58  94 2.59 113 2.59 115 2.60  88 2.60   5 2.63
                           119 2.99
 115  0.804  0.809  0.803- 119 2.43 110 2.59  95 2.60 114 2.60   1 2.60 111 2.62  22 2.62  89 2.66

 116  0.006  0.201  0.005-   1 2.54   6 2.54  28 2.54  34 2.54 118 2.61 117 2.61 120 2.61 119 2.61
                           124 2.78  96 2.95   9 2.95  33 2.95   5 2.95  29 2.98
 117  0.010  0.201  0.806-  32 2.43   5 2.51  33 2.51 124 2.52  12 2.58  99 2.58   8 2.61 116 2.61
                            28 2.93   4 2.99  37 2.99 118 3.05 119 3.05 123 3.16
 118  0.010  0.405  0.009-  39 2.43   9 2.51  33 2.51 124 2.52  12 2.58 102 2.58  13 2.61 116 2.61
                            34 2.93  14 2.99  38 2.99 117 3.05 120 3.05 125 3.16
 119  0.806  0.998  0.805- 115 2.43  96 2.51   5 2.51 124 2.52  99 2.58  76 2.58  94 2.61 116 2.61
                             1 2.93  95 2.99 114 2.99 117 3.05 120 3.05 121 3.16
 120  0.806  0.201  0.009- 100 2.43  96 2.51   9 2.51 124 2.52 102 2.58  76 2.58  77 2.61 116 2.61
                             6 2.93  73 2.99 103 2.99 118 3.05 119 3.05 122 3.16
 121  0.599  0.002  0.598-  70 2.66  94 2.67  51 2.69  75 2.69  76 2.71  99 2.71  80 2.77 124 2.81
                           123 2.99 122 2.99  93 2.99  71 2.99  50 3.01 119 3.16
 122  0.599  0.201  0.797-  57 2.66  77 2.67  51 2.69  85 2.69 102 2.71  76 2.71  80 2.77 124 2.81
                           125 2.99 121 2.99  81 2.99  52 2.99  56 3.01 120 3.16
 123  0.798  0.201  0.598- 101 2.66   8 2.67  75 2.69 105 2.69  12 2.71  99 2.71  80 2.77 124 2.81
                           125 2.99 121 2.99  11 2.99  98 2.99  79 3.01 117 3.16
 124  0.821  0.201  0.820- 119 2.52 120 2.52 117 2.52 118 2.52 116 2.78 121 2.81 122 2.81 123 2.81
                           125 2.81  76 3.00  99 3.00  12 3.00 102 3.00
 125  0.798  0.401  0.797- 110 2.66  13 2.67  85 2.69 105 2.69 102 2.71  12 2.71  80 2.77 124 2.81
                           123 2.99 122 2.99 106 2.99  17 2.99  84 3.01 118 3.16

  LATTYP: Found a base centered monoclinic cell.
 ALAT       =    21.2383654145
 B/A-ratio  =     0.7057331314
 C/A-ratio  =     0.7057284701
 COS(beta)  =    -0.7057530033

  Lattice vectors:

 A1 = (  -4.3436750936,  -6.1072275282, -10.6191982557)
 A2 = ( -12.9972976334,   0.0117677013,  -0.0205479752)
 A3 = (   8.6538150202,  12.2379406482,   0.0001945165)

Analysis of symmetry for initial positions (statically):
 Subroutine PRICEL returns:
 Original cell was already a primitive cell.

 Routine SETGRP: Setting up the symmetry group for a
 base centered monoclinic supercell.

 Subroutine GETGRP returns: Found  1 space group operations
 (whereof  1 operations were pure point group operations)
 out of a pool of  4 trial point group operations.

The static configuration has the point symmetry C_1 .

Analysis of symmetry for dynamics (positions and initial velocities):
 Subroutine PRICEL returns:
 Original cell was already a primitive cell.

 Routine SETGRP: Setting up the symmetry group for a
 base centered monoclinic supercell.

 Subroutine GETGRP returns: Found  1 space group operations
 (whereof  1 operations were pure point group operations)
 out of a pool of  4 trial point group operations.

The dynamic configuration has the point symmetry C_1 .

 Subroutine INISYM returns: Found  1 space group operations
 (whereof  1 operations are pure point group operations),
 and found     1 'primitive' translations

                                     Primitive cell

  volume of cell :    1690.1510

  direct lattice vectors                    reciprocal lattice vectors
    12.997297633 -0.011767701  0.020547975     0.076889531  0.027341453  0.046993791
    -4.343482613 12.249708349 -0.020353459    -0.000000599  0.081712768  0.047175326
    -4.310139927 -6.130713120 10.619003739    -0.000148784  0.000103713  0.094170280

  length of vectors
    12.997319203 12.996984655 12.997160842     0.094169907  0.094352996  0.094170454

  position of ions in fractional coordinates (direct lattice)
     0.005308683  0.005588290  0.004420612
     0.000778343  0.001149879  0.199997678
     0.999652279  0.000580368  0.398942905
     0.001691055  0.999659735  0.599573451
     0.001300056  0.004615862  0.803728573
     0.005302967  0.201282951  0.200117579
     0.001646182  0.201257205  0.399176063
     0.005216993  0.201240761  0.603425792
     0.001299689  0.397950931  0.197075639
     0.002683823  0.401460148  0.399666576
     0.001617932  0.400136003  0.600735549
     0.010091753  0.400994861  0.809482047
     0.005221583  0.602146362  0.004347849
     0.001687341  0.602477485  0.202386293
     0.001792175  0.601073091  0.400666247
     0.003089854  0.602346301  0.601099213
     0.001618170  0.601266154  0.801866633
     0.001659101  0.802855681  0.000773631
     0.999655959  0.801067572  0.199424152
     0.999721702  0.800052922  0.400035047
     0.001790496  0.801472868  0.601084117
     0.002701127  0.803414958  0.801615183
     0.200881137  0.001142029  0.999877651
     0.199577435  0.000028997  0.198690630
     0.197133291  0.999153440  0.398342787
     0.198747841  0.000025098  0.600852295
     0.200369653  0.001075201  0.801600510
     0.201038715  0.201296035  0.004418838
     0.203755838  0.201281575  0.202862937
     0.199579987  0.201240660  0.399898058
     0.200141414  0.201255487  0.599225742
     0.196217391  0.201266788  0.802726642
     0.198002282  0.397950784  0.000419815
     0.201032834  0.397024453  0.200134503
     0.200886896  0.401385078  0.400115217
     0.200299337  0.401930251  0.599616900
     0.203294455  0.402855404  0.801182648
     0.203287166  0.602460533  0.000790285
     0.196220214  0.593878476  0.195329470
     0.200373550  0.599152947  0.399653988
     0.201350724  0.601187195  0.600396326
     0.200645581  0.600927889  0.800097920
     0.200296259  0.801043907  0.998746505
     0.200133925  0.801277119  0.199247695
     0.198749996  0.798286386  0.399087073
     0.200922448  0.800195692  0.601096238
     0.201351525  0.801320315  0.800534492
     0.399819367  0.000557770  0.998744921
     0.399227897  0.999138000  0.196209934
     0.395798384  0.996736748  0.394902576
     0.387824715  0.993960517  0.594269630
     0.402731620  0.002357390  0.801846734
     0.400063853  0.201255262  0.000767400
     0.400810461  0.201253058  0.198694707
     0.398312657  0.201261865  0.397416102
     0.395784700  0.201300856  0.599465092
     0.395847571  0.201276754  0.802816597
     0.400575872  0.401469997  0.001808675
     0.401035515  0.401401680  0.200009208
     0.400803019  0.402469109  0.399907822
[...]
     0.802519748  0.803418839  0.001811067
     0.801440041  0.801351544  0.200462857
     0.800998401  0.801573377  0.400394045
     0.802071396  0.800025573  0.599557695
     0.803625819  0.808694116  0.802736635
     0.005803938  0.201289396  0.004904393
     0.009998187  0.201244152  0.805513979
     0.009994419  0.404830980  0.009109288
     0.806377577  0.997617416  0.805490010
     0.806380378  0.201238455  0.009113467
     0.598576173  0.001678878  0.597700800
     0.598577349  0.201257332  0.797275354
     0.798161395  0.201279975  0.597734094
     0.821161731  0.201194130  0.820309285
     0.798156223  0.400826488  0.797297620

  ion indices of the primitive-cell ions
   primitive index   ion index
                 1           1
[...]
    -4.310139927 -6.130713120 10.619003739    -0.000148784  0.000103713  0.094170280

  length of vectors
    12.997319203 12.996984655 12.997160842     0.094169907  0.094352996  0.094170454

 FORCES acting on ions
    electron-ion (+dipol)            ewald-force                    non-local-force                 convergence-correction
   -.321E+02 0.901E+02 -.189E+00   0.322E+02 -.900E+02 0.298E+00   -.696E-01 -.864E-04 -.112E+00   0.359E-02 -.156E-01 0.402E-02
   -.140E+01 0.440E+02 -.267E+02   0.155E+01 -.441E+02 0.269E+02   -.148E+00 0.254E-01 -.137E+00   -.283E-02 0.221E-02 0.201E-02
   0.113E+02 0.629E+01 -.197E+02   -.113E+02 -.631E+01 0.198E+02   0.322E-02 0.166E-01 -.826E-01   -.178E-02 0.282E-02 -.348E-02
   0.406E+00 -.141E+02 0.397E+02   -.281E+00 0.139E+02 -.398E+02   -.126E+00 0.120E+00 0.112E+00   0.355E-03 -.315E-02 -.485E-02
   -.625E+02 0.443E+02 0.669E+02   0.627E+02 -.444E+02 -.674E+02   -.204E+00 0.146E+00 0.453E+00   0.866E-02 -.101E-01 -.740E-02
   0.316E+02 0.451E+02 -.782E+02   -.315E+02 -.451E+02 0.782E+02   -.115E+00 0.326E-01 -.556E-01   -.715E-02 -.132E-01 0.140E-01
   0.433E+02 0.247E+02 -.428E+02   -.432E+02 -.247E+02 0.430E+02   -.140E+00 0.708E-01 -.125E+00   -.890E-03 -.987E-04 -.545E-02
   0.105E+03 -.254E+02 0.437E+02   -.105E+03 0.253E+02 -.435E+02   -.541E-02 0.692E-01 -.125E+00   0.189E-02 0.904E-03 -.103E-01
   0.548E+02 -.385E+02 -.765E+02   -.551E+02 0.388E+02 0.767E+02   0.371E+00 -.261E+00 -.248E+00   -.107E-01 -.579E-02 0.144E-01
   0.394E+02 0.151E+02 -.374E+02   -.395E+02 -.152E+02 0.375E+02   0.920E-01 0.108E+00 -.369E-01   -.233E-02 -.400E-02 -.244E-02
   0.813E+02 0.573E+02 -.157E+02   -.814E+02 -.573E+02 0.158E+02   0.751E-01 0.645E-01 -.348E-01   0.517E-03 0.168E-02 -.948E-02
   0.159E+03 -.253E+02 0.145E+03   -.159E+03 0.250E+02 -.145E+03   0.461E-01 0.236E+00 -.976E-01   0.284E-02 0.515E-02 -.824E-02
   0.586E+02 0.717E+01 0.100E+03   -.585E+02 -.729E+01 -.100E+03   -.708E-01 0.114E+00 -.451E-01   -.369E-02 0.793E-02 0.951E-03
   0.259E+02 -.321E+02 0.841E+01   -.260E+02 0.321E+02 -.824E+01   0.106E+00 -.453E-01 -.174E+00   -.654E-02 -.161E-02 0.670E-02
   0.697E+01 -.483E+01 -.139E+02   -.702E+01 0.487E+01 0.140E+02   0.513E-01 -.341E-01 -.126E+00   -.525E-02 -.334E-02 0.929E-03
   0.137E+02 0.366E+02 -.100E+02   -.138E+02 -.369E+02 0.101E+02   0.110E+00 0.256E+00 -.580E-01   -.192E-02 0.163E-02 -.515E-02
   0.412E+02 0.855E+02 0.334E+02   -.412E+02 -.856E+02 -.334E+02   0.259E-01 0.976E-01 0.238E-01   -.847E-03 0.688E-02 -.476E-02
   -.893E+01 0.615E+02 0.212E+02   0.904E+01 -.616E+02 -.210E+02   -.116E+00 0.525E-01 -.156E+00   -.251E-02 0.765E-02 0.180E-02
   -.927E+01 0.209E+02 0.547E+01   0.933E+01 -.210E+02 -.547E+01   -.563E-01 0.591E-01 -.100E-01   -.479E-02 0.636E-02 0.333E-02
   -.867E+01 -.857E+01 -.217E+01   0.862E+01 0.865E+01 0.208E+01   0.456E-01 -.860E-01 0.873E-01   -.414E-02 -.566E-03 0.155E-02
   -.113E+02 0.803E+01 0.845E+01   0.114E+02 -.810E+01 -.851E+01   -.103E+00 0.733E-01 0.627E-01   -.205E-02 -.104E-02 -.250E-02
   -.103E+02 0.502E+02 0.235E+02   0.103E+02 -.503E+02 -.235E+02   0.513E-01 0.137E+00 0.131E-01   -.498E-03 0.295E-02 -.881E-03
   -.421E+02 0.297E+02 -.184E+01   0.422E+02 -.298E+02 0.202E+01   -.761E-01 0.514E-01 -.184E+00   0.142E-02 -.117E-02 0.274E-02
   -.352E+02 0.330E+02 -.381E+02   0.352E+02 -.330E+02 0.381E+02   0.124E-01 -.312E-01 0.395E-02   -.361E-02 0.601E-02 -.145E-02
   -.432E+02 0.489E+01 -.382E+02   0.432E+02 -.504E+01 0.383E+02   -.455E-01 0.136E+00 -.117E+00   -.717E-02 0.354E-02 -.484E-02
   -.443E+02 -.213E+02 -.108E+02   0.441E+02 0.213E+02 0.107E+02   0.160E+00 -.544E-01 0.682E-01   -.475E-02 -.373E-02 -.311E-02
   -.508E+02 -.692E+01 0.234E+02   0.509E+02 0.702E+01 -.234E+02   -.111E+00 -.936E-01 0.123E-01   -.129E-02 -.457E-02 0.483E-03
   -.956E+02 0.281E+00 -.282E+00   0.956E+02 -.341E+00 0.392E+00   -.205E-01 0.670E-01 -.112E+00   0.154E-01 -.878E-02 0.273E-02
   -.470E+02 0.332E+02 -.575E+02   0.473E+02 -.334E+02 0.579E+02   -.283E+00 0.200E+00 -.345E+00   0.469E-02 -.956E-02 0.865E-02
   -.271E+02 0.275E+02 -.479E+02   0.271E+02 -.275E+02 0.479E+02   -.398E-02 -.177E-01 0.255E-01   -.421E-02 0.102E-02 -.643E-02
   -.254E+02 0.822E+01 -.144E+02   0.252E+02 -.835E+01 0.146E+02   0.245E+00 0.128E+00 -.225E+00   -.431E-02 0.651E-03 -.850E-02
   -.986E+02 -.222E+02 0.385E+02   0.991E+02 0.223E+02 -.386E+02   -.493E+00 -.493E-01 0.854E-01   0.316E-02 -.464E-02 -.441E-02
   -.624E+02 -.800E+02 -.470E+01   0.626E+02 0.805E+02 0.460E+01   -.199E+00 -.464E+00 0.104E+00   0.992E-02 0.393E-02 0.955E-03
   -.321E+02 -.446E+02 -.781E+02   0.321E+02 0.445E+02 0.781E+02   -.685E-01 0.101E+00 -.537E-01   0.454E-02 -.316E-02 0.162E-01
   -.148E+01 0.115E+01 -.516E+02   0.163E+01 -.125E+01 0.516E+02   -.149E+00 0.105E+00 -.907E-01   -.206E-02 -.623E-02 0.798E-03
   0.113E+02 0.139E+02 -.153E+02   -.113E+02 -.140E+02 0.154E+02   0.140E-02 0.617E-01 -.564E-01   -.920E-03 0.115E-02 -.694E-02
   0.500E+00 -.273E+02 0.321E+02   -.379E+00 0.275E+02 -.321E+02   -.123E+00 -.158E+00 -.481E-01   0.150E-02 0.280E-02 -.601E-02
   0.135E+02 -.366E+02 0.161E+02   -.133E+02 0.367E+02 -.161E+02   -.154E+00 -.138E+00 -.150E-01   0.270E-02 0.699E-02 -.142E-02
   -.119E+02 -.835E+02 -.676E+02   0.121E+02 0.839E+02 0.679E+02   -.117E+00 -.315E+00 -.373E+00   -.824E-03 0.145E-02 0.749E-02
   -.999E+00 -.420E+02 -.376E+02   0.107E+01 0.422E+02 0.376E+02   -.704E-01 -.121E+00 -.373E-01   -.397E-02 -.572E-02 0.296E-02
   0.836E+01 -.588E+01 -.143E+02   -.838E+01 0.590E+01 0.143E+02   0.214E-01 -.166E-01 -.302E-02   -.128E-02 -.144E-02 -.175E-02
   0.272E+02 0.792E+01 0.177E+02   -.272E+02 -.782E+01 -.177E+02   -.179E-01 -.988E-01 0.432E-01   0.300E-02 0.547E-02 -.245E-02
   -.229E+01 0.234E+02 0.123E+01   0.231E+01 -.235E+02 -.119E+01   -.181E-01 0.725E-01 -.348E-01   0.636E-03 0.892E-02 0.107E-03
   -.165E+02 0.171E+01 -.256E+02   0.165E+02 -.204E+01 0.255E+02   -.428E-01 0.329E+00 0.122E+00   -.363E-02 0.713E-02 -.118E-03
   -.335E+02 -.288E+02 -.240E+02   0.335E+02 0.288E+02 0.238E+02   0.832E-01 0.188E-02 0.162E+00   -.644E-02 -.111E-02 0.223E-02
   -.300E+02 -.250E+02 -.100E+02   0.302E+02 0.252E+02 0.101E+02   -.204E+00 -.186E+00 -.579E-01   -.437E-02 -.217E-02 -.477E-05
   -.117E+02 0.825E+01 0.102E+02   0.117E+02 -.825E+01 -.102E+02   -.383E-02 0.108E-02 0.272E-01   -.275E-03 0.236E-02 0.844E-03
   -.229E+02 -.580E+01 0.119E+01   0.229E+02 0.582E+01 -.116E+01   -.769E-01 -.124E-01 -.343E-01   0.234E-02 -.152E-03 0.367E-02
   -.190E+02 0.134E+02 -.530E+02   0.192E+02 -.135E+02 0.531E+02   -.142E+00 0.100E+00 -.590E-01   0.154E-02 0.723E-02 -.379E-02
   -.633E+02 0.176E+02 -.930E+02   0.633E+02 -.181E+02 0.927E+02   -.243E-01 0.496E+00 0.249E+00   -.909E-03 0.344E-02 -.441E-02
   -.139E+03 -.702E+02 -.731E+02   0.139E+03 0.705E+02 0.728E+02   0.146E+00 -.277E+00 0.282E+00   -.336E-02 -.409E-02 0.701E-03
   -.668E+02 -.674E+02 0.332E+02   0.669E+02 0.675E+02 -.332E+02   -.826E-01 -.600E-01 0.236E-01   -.240E-03 -.448E-02 0.473E-02
   -.611E+02 -.121E+02 0.211E+02   0.612E+02 0.121E+02 -.209E+02   -.901E-01 0.883E-01 -.156E+00   0.203E-02 -.764E-02 0.469E-02
   -.430E+02 0.220E+02 -.382E+02   0.429E+02 -.220E+02 0.382E+02   0.327E-01 -.409E-02 0.411E-02   0.101E-02 -.213E-02 -.845E-04
   -.436E+02 0.306E+02 -.533E+02   0.437E+02 -.307E+02 0.535E+02   -.164E+00 0.115E+00 -.202E+00   -.373E-02 0.488E-02 -.893E-02
   -.886E+02 0.356E+02 -.618E+02   0.882E+02 -.358E+02 0.621E+02   0.428E+00 0.178E+00 -.304E+00   -.483E-02 0.863E-03 -.494E-02
   -.116E+03 -.160E+02 0.277E+02   0.116E+03 0.162E+02 -.280E+02   0.339E+00 -.154E+00 0.269E+00   -.158E-02 -.549E-02 0.109E-02
   -.508E+02 -.168E+02 0.178E+02   0.509E+02 0.168E+02 -.179E+02   -.111E+00 0.364E-01 0.894E-01   0.197E-02 -.367E-02 0.214E-02
   -.421E+02 -.132E+02 -.268E+02   0.422E+02 0.131E+02 0.269E+02   -.722E-01 0.132E+00 -.136E+00   0.481E-02 -.747E-02 0.516E-02
   -.352E+02 0.164E+02 -.479E+02   0.352E+02 -.164E+02 0.478E+02   0.126E-01 0.823E-02 0.263E-01   -.189E-03 -.331E-02 -.213E-02
[...]
   0.841E+01 0.153E+02 -.212E+01   -.843E+01 -.154E+02 0.210E+01   0.225E-01 0.119E-01 0.107E-01   0.654E-03 0.719E-02 0.345E-02
   0.272E+02 -.192E+02 0.187E+01   -.272E+02 0.192E+02 -.198E+01   -.150E-01 0.104E-01 0.104E+00   0.492E-02 -.235E-04 0.320E-02
   0.135E+02 0.433E+01 0.396E+02   -.133E+02 -.441E+01 -.397E+02   -.154E+00 0.767E-01 0.111E+00   0.453E-02 -.157E-02 -.653E-03
   -.120E+02 0.100E+03 0.386E+02   0.121E+02 -.101E+03 -.387E+02   -.120E+00 0.486E+00 0.855E-01   0.907E-03 -.266E-02 0.123E-02
   0.224E+02 -.157E+02 0.274E+02   -.225E+02 0.158E+02 -.276E+02   0.145E+00 -.104E+00 0.178E+00   0.221E-03 -.124E-01 0.568E-02
   0.106E+03 -.848E+02 0.147E+03   -.105E+03 0.850E+02 -.147E+03   -.910E+00 -.185E+00 0.316E+00   0.686E-02 0.692E-04 -.155E-01
   0.115E+03 -.911E+02 0.136E+03   -.115E+03 0.918E+02 -.135E+03   -.132E+00 -.734E+00 -.638E+00   -.667E-02 0.660E-02 0.261E-02
   0.115E+03 -.721E+02 0.147E+03   -.115E+03 0.712E+02 -.147E+03   -.130E+00 0.919E+00 0.319E+00   -.377E-02 -.127E-01 -.741E-02
   0.124E+03 -.784E+02 0.136E+03   -.125E+03 0.781E+02 -.135E+03   0.650E+00 0.367E+00 -.639E+00   -.163E-01 -.106E-01 0.664E-02
   0.159E+02 -.124E+03 -.456E+02   -.160E+02 0.124E+03 0.453E+02   0.107E+00 0.174E+00 0.277E+00   0.225E-02 -.279E-02 -.676E-04
   -.904E+02 -.488E+02 0.845E+02   0.900E+02 0.488E+02 -.845E+02   0.344E+00 0.643E-02 -.138E-01   -.112E-02 -.551E-02 0.315E-02
   0.122E+03 0.263E+02 -.456E+02   -.122E+03 -.261E+02 0.453E+02   -.130E+00 -.160E+00 0.277E+00   0.461E-02 0.168E-02 -.739E-02
   0.196E+03 -.138E+03 0.239E+03   -.195E+03 0.138E+03 -.239E+03   -.130E+00 0.868E-01 -.158E+00   -.786E-02 -.566E-03 -.959E-02
   0.158E+02 0.101E+03 0.846E+02   -.159E+02 -.101E+03 -.846E+02   0.106E+00 -.328E+00 -.125E-01   -.202E-03 0.322E-02 -.253E-02
   0.103E+01 -.730E+00 0.126E+01   0.192E-11 0.227E-12 0.242E-12   -.103E+01 0.730E+00 -.127E+01   -.220E-02 -.587E-02 0.576E-02

 POSITION                                       TOTAL-FORCE (eV/Angst)
      0.02567      0.04129      0.04694        -0.000089      0.002466      0.000746
     -0.85690     -1.21205      2.12377         0.000604      0.000085      0.000358
     11.27076     -2.45046      4.25691         0.000581      0.000201     -0.001639
     -6.90427      8.56971      6.34656         0.000012      0.001478     -0.001032
     -3.46733     -4.87090      8.53473        -0.001486      0.000155      0.003240
     -1.66788      1.23873      2.12106         0.002388      0.000641     -0.001806
     -2.57327      0.01809      4.23479         0.002581     -0.000010     -0.001371
     -3.40713     -1.23435      6.40379        -0.000108      0.001570     -0.002499
     -2.56102      3.66655      2.08467         0.001957     -0.002107     -0.001776
     -3.43147      2.46750      4.23594        -0.000506     -0.000209     -0.001527
     -4.30621      1.21859      6.37110         0.002736      0.001042     -0.000423
     -5.09953     -0.05075      8.58794        -0.003800     -0.000217     -0.002577
     -2.56629      7.34940      0.03402        -0.001612      0.002400     -0.001243
     -3.46723      6.13938      2.13691        -0.000266      0.001265     -0.000656
     -4.31438      4.90658      4.24248        -0.000604      0.000359     -0.001402
     -5.16694      3.69336      6.37088         0.000808      0.000768      0.000869
     -6.04671      2.44930      8.50282         0.000627      0.002566      0.001400
     -3.46896      9.82999     -0.00809        -0.000090      0.001590      0.001302
      8.65386      8.57847      2.12192        -0.001241      0.000882      0.000318
      7.79446      7.33615      4.25223        -0.000269     -0.002092      0.000856
     -6.04867      6.13271      6.36664        -0.002170      0.001140     -0.000159
     -6.90959      4.92709      8.49606        -0.001919      0.000319     -0.000836
     -1.70366     -6.11834     10.62181        -0.000557     -0.000148      0.001439
      1.73746     -1.22011      2.11400         0.001268     -0.001273      0.001332
     -3.49452      9.79489      4.21372         0.000334     -0.002974      0.001981
     -0.00668     -3.68568      6.38454        -0.000224     -0.002469      0.000628
     -0.85542     -4.90357      8.51629        -0.001766      0.000285     -0.000385
      1.71959      2.43636      0.04696        -0.003248     -0.001423      0.001106
      0.89964      1.21955      2.15429         0.002677     -0.001875      0.003217
     -0.00370      0.01113      4.24652         0.000608     -0.000712      0.002107
     -0.85560     -1.21072      6.36320         0.002250      0.000590     -0.000552
     -1.78377     -2.45814      8.52409        -0.000448     -0.001105      0.001234
      0.84319      4.86988      0.00043        -0.001441     -0.002635      0.000301
      0.02581      3.63410      2.12128        -0.000154     -0.003349     -0.002055
     -0.85697      2.46149      4.24478         0.001126     -0.001137     -0.000293
     -1.72686      1.24509      6.36327         0.000500      0.001036     -0.000118
     -2.56073      0.02065      8.50374        -0.000605      0.000292     -0.001860
      0.02200      7.37273      0.00031        -0.001398      0.000908      0.000014
     -0.87107      6.07502      2.06615         0.000664     -0.001523     -0.000653
     -1.72066      4.88693      4.23585        -0.000601     -0.000973     -0.001466
     -2.58202      3.68114      6.36751         0.000833     -0.000332      0.000057
     -3.45080      2.45366      8.48813         0.000363      0.000802      0.000170
     -5.18075      3.68717     10.59350         0.000141      0.001375     -0.000087
     -1.73792      8.59153      2.10362         0.000744      0.001805      0.001798
     -2.60425      7.32975      4.22574        -0.001067     -0.002110      0.001395
     -3.45500      6.11465      6.37089        -0.000561     -0.001605      0.000834
     -4.31391      4.90572      8.48871        -0.000668      0.000052      0.000892
      0.88942     -6.12089     10.61388        -0.001295     -0.000081     -0.000180
      0.00345     11.03154      2.07142         0.002774     -0.002107      0.000707
     -0.88708      9.78404      4.18132         0.000266     -0.005362     -0.002463
     -1.83796      8.52787      6.29829        -0.000651     -0.004183      0.001733
      1.76811     -4.89175      8.52304        -0.002004     -0.001422      0.001756
      4.32229      2.45591      0.01227        -0.001870     -0.001192      0.001366
      3.47891      1.24243      2.11408         0.001700     -0.000051      0.001271
      2.58989      0.02427      4.22425         0.000834     -0.000200      0.001706
      1.68601     -1.21393      6.36976        -0.003667     -0.002306      0.003525
      0.81045     -2.46091      8.52915        -0.000366     -0.001914      0.002271
      3.45483      4.90209      0.01927        -0.001121     -0.000017     -0.001431
      2.60683      3.68614      2.12397        -0.000259     -0.000982      0.000641
      1.73758      2.47369      4.24667         0.001596      0.000332      0.002567
[...]
      6.93315      9.82110      0.01937        -0.000780      0.000741     -0.001940
      6.07188      8.57791      2.12887         0.000171      0.000424     -0.000674
      5.20344      7.35491      4.25193        -0.000590      0.000467     -0.000431
      4.36569      6.11493      6.36690        -0.002171      0.000177     -0.000645
      3.47251      4.97546      8.52432         0.000738      0.000099      0.000614
     -0.82000      2.43560      0.04810         0.003436     -0.002326      0.004174
     -4.21603     -2.47331      8.54987        -0.004550      0.002140     -0.002286
     -1.66774      4.90310      0.08870        -0.003095      0.001086     -0.004363
      2.67582      7.27281      8.54977        -0.002679      0.004873     -0.002099
      9.56741      2.39975      0.10925        -0.001065      0.003518     -0.004065
      5.19641     -3.65081      6.35925        -0.001579      0.000953     -0.002146
      3.46936     -2.42957      8.47447        -0.001927      0.000800     -0.001088
      6.92337     -1.20831      6.35964        -0.000540      0.001214     -0.002206
      6.26335     -2.57417      8.72365         0.000569      0.001497      0.000974
      5.19643      0.01261      8.47475        -0.001083      0.002075     -0.001400
    total drift:                                0.000441     -0.006604     -0.007937

  FREE ENERGIE OF THE ION-ELECTRON SYSTEM (eV)
  free  energy   TOTEN  =     -1115.98274160 eV

  energy  without entropy=    -1116.00671305  energy(sigma->0) =    -1115.99073208