 vasp.6.4.2 20Jul23 (build Sep 20 2024 16:56:05) complex
 executed on              LinuxNV date 2025.02.03  23:45:36
 OpenACC runtime initialized ...    4 GPUs detected

 INCAR:
   PREC = Accurate
   ENCUT = 520
   EDIFF = 1e-06
   ISMEAR = 1
   SIGMA = 0.2
   NSW = 0
   IBRION = -1
   LWAVE = .FALSE.
   LCHARG = .TRUE.
   LREAL = .FALSE.
   ALGO = Normal

 POTCAR:    PAW_PBE Cr_pv 02Aug2007
 POTCAR:    PAW_PBE Ti_pv 07Sep2000
 POTCAR:    PAW_PBE V_pv 07Sep2000
 POTCAR:    PAW_PBE W_sv 04Sep2015
 POTCAR:    PAW_PBE Zr_sv 04Jan2005
 POTCAR:    PAW_PBE Cr_pv 02Aug2007
   VRHFIN =Cr : p6d5s1

   TITEL  = PAW_PBE Cr_pv 02Aug2007
   POMASS =   51.996; ZVAL   =   12.000    mass and valenz
   ENMAX  =  265.681; ENMIN  =  199.261 eV

   TITEL  = PAW_PBE Ti_pv 07Sep2000
   POMASS =   47.880; ZVAL   =   10.000    mass and valenz
   ENMAX  =  222.335; ENMIN  =  166.751 eV

   TITEL  = PAW_PBE V_pv 07Sep2000
   POMASS =   50.941; ZVAL   =   11.000    mass and valenz
   ENMAX  =  263.673; ENMIN  =  197.755 eV

   TITEL  = PAW_PBE W_sv 04Sep2015
   POMASS =  183.850; ZVAL   =   14.000    mass and valenz
   ENMAX  =  223.057; ENMIN  =  167.293 eV

   TITEL  = PAW_PBE Zr_sv 04Jan2005
   POMASS =   91.224; ZVAL   =   12.000    mass and valenz
   ENMAX  =  229.898; ENMIN  =  172.424 eV

  PAW_PBE Cr_pv 02Aug2007               :
  PAW_PBE Ti_pv 07Sep2000               :
  PAW_PBE V_pv 07Sep2000                :
  PAW_PBE W_sv 04Sep2015                :
  PAW_PBE Zr_sv 04Jan2005               :

 POSCAR: Cr Ti V  W  Zr
  positions in cartesian coordinates
 exchange correlation table for  LEXCH =        8
   RHO(1)=    0.500       N(1)  =     2000
   RHO(2)=  100.500       N(2)  =     4000

 ion  position               nearest neighbor table
   1  0.250  0.749  0.000-  65 2.52  36 2.52  28 2.53  58 2.55  22 2.56  59 2.57  30 2.57  53 2.57
                            60 3.00  90 3.01  52 3.01  29 3.01  37 3.04  64 3.04
   2  0.749  0.244  0.254-  67 2.49  98 2.52  77 2.56  69 2.57  99 2.59 104 2.59 124 2.64  75 2.65
                           105 2.98  76 3.00 111 3.01  15 3.02 103 3.04
   3  0.251  0.501  0.748-  26 2.65  51 2.66  57 2.66  49 2.66  18 2.66  20 2.66  58 2.66  28 2.67
                            64 2.97  50 2.97  88 3.00  27 3.01  52 3.02  56 3.03
   4  0.750  0.004  0.752- 101 2.65  71 2.65 121 2.65  95 2.66 102 2.72  73 2.72 123 2.74  97 2.74
                            72 2.96  11 2.96 107 2.99 100 3.02 127 3.08
   5  0.004  0.999  0.002-  12 2.58  30 2.58   6 2.58  36 2.58 123 2.64 102 2.68  98 2.72 117 2.74
                           127 3.08
   6  0.125  0.124  0.127-  39 2.57  37 2.58   5 2.58  15 2.59  46 2.60  13 2.61   7 2.63  44 2.63

   7  0.000  0.995  0.251-  98 2.55  32 2.55  99 2.61 117 2.62   8 2.62 119 2.62  30 2.63   6 2.63

[...]

  11  0.995  0.001  0.751- 123 2.56 121 2.57 102 2.60 101 2.62  12 2.68  34 2.70  10 2.70  36 2.74
                             4 2.96 126 3.07
  12  0.122  0.130  0.880-  13 2.53  44 2.57   5 2.58  19 2.61  37 2.65  11 2.68  50 2.68 126 2.74
                           102 2.87
  13  0.001  0.250  0.002- 102 2.48  12 2.53  14 2.59  20 2.59   6 2.61 124 2.62 108 2.65  98 2.70

[...]

  22  0.128  0.624  0.122-   1 2.56  31 2.58  21 2.58  52 2.58  29 2.58  60 2.60  54 2.61  23 2.65
                            28 2.92
  23  0.998  0.501  0.250-  24 2.57  16 2.60 124 2.61 110 2.61 112 2.63  14 2.65  22 2.65 104 2.66

[...]

  26  0.125  0.628  0.621-  62 2.58  33 2.59  64 2.59  35 2.61  56 2.62  25 2.63   3 2.65  27 2.65
                            34 2.92 125 3.02
  27  0.001  0.500  0.750- 108 2.59 115 2.60  20 2.60 125 2.61  18 2.62 106 2.65  26 2.65  28 2.67
                             3 3.01
  28  0.126  0.629  0.880-   1 2.53  29 2.56  21 2.60  52 2.60  64 2.61  35 2.61  27 2.67   3 2.67
                            36 2.88  22 2.92
  29  1.000  0.748  0.002- 117 2.46 123 2.52  36 2.54  28 2.56  22 2.58 115 2.62  30 2.62 110 2.65
                             1 3.01
  30  0.129  0.874  0.123-  37 2.56   1 2.57  31 2.58   5 2.58  60 2.60  39 2.61  29 2.62   7 2.63
                            36 2.91  59 2.92
  31  0.012  0.749  0.251- 117 2.47  24 2.51  32 2.55  22 2.58  30 2.58 112 2.64 119 2.66 110 2.67
                            60 2.88
  32  0.127  0.877  0.373-  31 2.55  41 2.55   7 2.55  39 2.58  62 2.61   9 2.62  33 2.63  60 2.63

[...]

  56  0.251  0.501  0.497-  55 2.59  24 2.59  26 2.62  16 2.63  47 2.63  49 2.63  18 2.64  57 2.64
                             3 3.03
  57  0.379  0.628  0.621-  94 2.56  96 2.57  62 2.60  86 2.61  64 2.61  88 2.62  56 2.64   3 2.66
                            63 2.91
  58  0.375  0.629  0.880-  90 2.54   1 2.55  52 2.59  64 2.61  96 2.61  82 2.61   3 2.66  88 2.67
                            65 2.88  53 2.91
  59  0.371  0.874  0.123-  37 2.56   1 2.57  66 2.58  92 2.59  60 2.60  39 2.61  68 2.63  90 2.63
                            65 2.91  30 2.92
  60  0.250  0.747  0.249-  22 2.60  59 2.60  24 2.60  53 2.60  30 2.60  55 2.61  61 2.62  32 2.63
                            92 2.87  31 2.88   1 3.00
  61  0.374  0.877  0.373-  92 2.55  41 2.55  68 2.56  39 2.59  62 2.61  70 2.62  60 2.62  94 2.64

[...]

  63  0.382  0.869  0.617-  94 2.50  70 2.55  96 2.59  62 2.60  64 2.67  72 2.69  41 2.70 126 2.72
                            57 2.91
  64  0.250  0.747  0.748-  26 2.59  28 2.61  57 2.61  58 2.61  65 2.63  36 2.65  63 2.67  34 2.68
                             3 2.97 126 3.04   1 3.04
  65  0.375  0.867  0.882-   1 2.52  90 2.54  66 2.58  96 2.63  64 2.63  37 2.65 126 2.74  72 2.74
                            58 2.88  97 2.90  59 2.91
  66  0.495  0.999  0.001-  43 2.57  59 2.58  38 2.58  65 2.58  97 2.65  73 2.68  67 2.75  91 2.76
                           127 3.06
  67  0.623  0.128  0.138-  76 2.46   2 2.49  68 2.56  74 2.67 103 2.68 127 2.71  66 2.75 118 2.78
                            69 2.86
  68  0.500  0.995  0.250-  61 2.56  67 2.56  69 2.61  40 2.62  91 2.62  38 2.63  59 2.63  93 2.63

[...]

  97  0.615  0.866  0.873-  96 2.48  90 2.52  72 2.57 122 2.60 116 2.62  66 2.65   4 2.74 127 2.77
                            65 2.90
  98  0.876  0.124  0.139-  15 2.50   2 2.52   7 2.55  13 2.70 127 2.70   5 2.72 103 2.73 118 2.74
                            99 2.85 124 3.01
  99  0.872  0.117  0.376- 100 2.56   9 2.57   2 2.59   7 2.61 105 2.63  15 2.65  17 2.65 118 2.67
                            98 2.85
 100  0.750  0.997  0.502-  99 2.56 121 2.57  69 2.57  95 2.58 101 2.63  71 2.63 119 2.64  93 2.64
                             4 3.02
 101  0.876  0.128  0.623- 105 2.55  17 2.56   9 2.61  11 2.62  19 2.62 100 2.63 107 2.63   4 2.65

 102  0.884  0.137  0.876-  13 2.48  19 2.50  11 2.60 107 2.61 103 2.62   5 2.68   4 2.72 127 2.85
                            12 2.87 108 2.90
 103  0.748  0.251  0.002-  75 2.59 124 2.60  73 2.61  81 2.62 102 2.62 108 2.64  67 2.68  98 2.73
                             2 3.04 127 3.09
 104  0.872  0.371  0.376-  17 2.56 105 2.58 111 2.58 113 2.58   2 2.59  25 2.62  15 2.63  23 2.66
                           124 3.00
 105  0.750  0.247  0.501-  71 2.54 101 2.55 104 2.58 106 2.59  77 2.59  79 2.61  69 2.62  99 2.63
                             2 2.98
 106  0.874  0.373  0.624- 107 2.58  19 2.59 105 2.59  17 2.60 114 2.61 113 2.64  25 2.64  27 2.65
                           125 3.01
 107  0.750  0.252  0.750- 106 2.58 108 2.60  73 2.60  79 2.60 102 2.61  81 2.61  71 2.62 101 2.63
                             4 2.99
 108  0.875  0.377  0.874- 114 2.58  27 2.59 107 2.60  19 2.61  21 2.62 109 2.63 103 2.64  13 2.65
                           102 2.90 124 3.05
 109  0.749  0.501  0.002-  89 2.58 115 2.59  83 2.60  81 2.61  75 2.61 124 2.63 110 2.63 108 2.63

 110  0.869  0.628  0.132-  23 2.61 111 2.61 116 2.62 109 2.63  29 2.65  31 2.67  21 2.72 117 2.75
                           112 2.82  83 2.88 124 3.07
 111  0.749  0.494  0.252-  77 2.55  75 2.57 124 2.58 104 2.58  85 2.58 112 2.58  83 2.58 110 2.61
                             2 3.01
 112  0.867  0.631  0.366- 111 2.58  23 2.63  31 2.64 120 2.64 113 2.65  33 2.66  25 2.75 110 2.82
                            85 2.85 119 2.87 125 3.10
 113  0.749  0.499  0.496-  77 2.58 104 2.58  79 2.60  87 2.61  85 2.62 125 2.63 106 2.64 112 2.65

[...]

 115  0.875  0.621  0.877- 116 2.53  21 2.56 109 2.59  27 2.60  29 2.62 114 2.63 122 2.64  35 2.65
                           125 3.05
 116  0.750  0.744  0.992- 115 2.53  89 2.55  97 2.62 123 2.62 110 2.62  83 2.63  91 2.69 117 2.70
                           122 2.89 127 3.03
 117  0.884  0.856  0.132-  29 2.46  31 2.47   7 2.62 118 2.64 116 2.70   5 2.74 110 2.75 127 2.77

 118  0.750  0.976  0.257-  93 2.50 119 2.51 117 2.64  91 2.66  69 2.66  99 2.67  98 2.74  67 2.78
                           127 3.01
 119  0.879  0.869  0.380-  33 2.47 118 2.51   9 2.60 120 2.61   7 2.62 100 2.64  31 2.66 112 2.87

 120  0.749  0.751  0.507-  95 2.54  87 2.58 125 2.58 121 2.58  93 2.60 119 2.61  85 2.63 112 2.64

 121  0.876  0.877  0.625- 100 2.57  11 2.57 120 2.58   9 2.59  35 2.63  33 2.63   4 2.65 122 2.66
                            34 2.92 125 3.06
 122  0.749  0.748  0.752-  97 2.60 123 2.62  89 2.62  95 2.63 115 2.64 125 2.64  87 2.65 121 2.66
                           116 2.89
 123  0.885  0.867  0.874-  35 2.48  29 2.52  11 2.56 122 2.62 116 2.62   5 2.64   4 2.74 127 2.77
                            36 2.89
 124  0.874  0.374  0.127- 111 2.58 103 2.60  23 2.61  13 2.62 109 2.63  15 2.64   2 2.64  21 2.66
                            75 3.00 104 3.00  98 3.01  14 3.04 108 3.05 110 3.07
 125  0.874  0.623  0.624- 120 2.58  27 2.61  25 2.62 114 2.62 113 2.63 122 2.64  35 2.64  33 2.64
                           106 3.01  26 3.02  87 3.02 115 3.05 121 3.06 112 3.10
 126  0.250  1.000  0.745-  34 2.71  63 2.72  42 2.73  10 2.73  65 2.74  43 2.74  12 2.74  36 2.74
                            64 3.04  41 3.05  72 3.06  11 3.07  50 3.08  37 3.11
 127  0.749  0.995  0.008-  98 2.70  67 2.71  97 2.77  91 2.77 123 2.77 117 2.77  73 2.85 102 2.85
                           118 3.01 116 3.03  66 3.06   5 3.08   4 3.08 103 3.09

  LATTYP: Found a triclinic cell.
 ALAT       =    17.0358975283
 B/A-ratio  =     0.7070015846
 C/A-ratio  =     0.7071772766
 COS(alpha) =     0.0000417821
 COS(beta)  =     0.0004596508
 COS(gamma) =     0.7064723174

  Lattice vectors:

 A1 = ( -12.0398988670, -12.0524945360,  -0.0039149010)
 A2 = ( -12.0444057020,   0.0045050720,  -0.0002512580)
 A3 = (  -0.0002534140,  -0.0036608590, -12.0473990590)

Analysis of symmetry for initial positions (statically):
 Subroutine PRICEL returns:
 Original cell was already a primitive cell.

 Routine SETGRP: Setting up the symmetry group for a
 triclinic supercell.

 Subroutine GETGRP returns: Found  1 space group operations
 (whereof  1 operations were pure point group operations)
 out of a pool of  2 trial point group operations.

The static configuration has the point symmetry C_1 .

Analysis of symmetry for dynamics (positions and initial velocities):
 Subroutine PRICEL returns:
 Original cell was already a primitive cell.

 Routine SETGRP: Setting up the symmetry group for a
 triclinic supercell.

[...]
     0.000253414  0.003660859 12.047399059    -0.000001741 -0.000025223  0.083005476

  length of vectors
    12.044406547 12.057001007 12.047399618     0.083026115  0.082939403  0.083005480

 FORCES acting on ions
    electron-ion (+dipol)            ewald-force                    non-local-force                 convergence-correction
   -.483E+01 -.205E+02 0.249E+02   0.482E+01 0.203E+02 -.247E+02   0.123E-01 0.141E+00 -.221E+00   0.182E-02 -.152E-02 0.327E-02
   0.185E+02 0.684E+02 0.791E+01   -.186E+02 -.677E+02 -.744E+01   0.120E+00 -.847E+00 -.456E+00   -.211E-03 -.615E-02 -.603E-02
   -.406E+01 0.719E+01 0.191E+02   0.402E+01 -.729E+01 -.190E+02   0.386E-01 0.101E+00 -.768E-01   0.128E-02 0.118E-02 0.786E-03
   0.632E+01 0.147E+02 -.949E+02   -.633E+01 -.149E+02 0.945E+02   0.879E-02 0.155E+00 0.341E+00   -.176E-02 -.304E-02 0.307E-02
   0.130E+03 0.236E+01 0.219E+02   -.130E+03 -.241E+01 -.216E+02   0.285E+00 0.316E-01 -.204E+00   -.451E-02 -.150E-02 0.536E-02
   0.267E+02 0.133E+02 0.253E+02   -.268E+02 -.131E+02 -.253E+02   0.761E-01 -.191E+00 -.495E-01   -.117E-02 -.605E-03 0.288E-02
   0.815E+02 0.402E+02 0.328E+02   -.813E+02 -.402E+02 -.327E+02   -.298E+00 0.427E-01 -.633E-01   -.389E-02 -.288E-02 -.222E-02
   0.946E+00 0.732E+01 -.228E+02   -.910E+00 -.731E+01 0.228E+02   -.293E-01 -.335E-01 -.793E-01   0.217E-02 -.230E-02 -.255E-02
   0.872E+01 0.134E+02 -.248E+02   -.898E+01 -.134E+02 0.245E+02   0.241E+00 -.260E-01 0.337E+00   0.125E-02 -.250E-02 -.444E-02
   -.685E+02 0.648E+02 -.859E+02   0.681E+02 -.641E+02 0.856E+02   0.388E+00 -.658E+00 0.374E+00   0.380E-02 -.223E-02 -.217E-02
   -.190E+02 -.338E+01 -.285E+02   0.194E+02 0.350E+01 0.284E+02   -.383E+00 -.133E+00 0.136E+00   -.762E-03 -.146E-02 0.126E-02
   -.345E+02 0.689E+02 0.822E+02   0.339E+02 -.683E+02 -.818E+02   0.642E+00 -.670E+00 -.429E+00   0.141E-03 -.186E-03 0.202E-02
   0.123E+02 0.564E+02 0.190E+02   -.121E+02 -.563E+02 -.187E+02   -.261E+00 -.128E+00 -.394E+00   -.334E-03 -.132E-02 0.409E-02
   -.883E+00 0.335E+01 -.661E+01   0.759E+00 -.329E+01 0.685E+01   0.130E+00 -.711E-01 -.230E+00   0.274E-03 0.765E-03 0.122E-02
   -.268E+02 0.163E+02 -.158E+02   0.272E+02 -.161E+02 0.161E+02   -.453E+00 -.256E+00 -.306E+00   0.889E-03 -.199E-02 -.274E-02
   -.104E+02 -.880E+01 -.183E+02   0.104E+02 0.894E+01 0.183E+02   -.294E-01 -.147E+00 -.510E-01   0.210E-02 0.249E-03 -.319E-02
   -.939E+01 0.420E+01 -.445E+01   0.919E+01 -.407E+01 0.395E+01   0.214E+00 -.134E+00 0.520E+00   0.486E-02 -.253E-02 -.428E-02
   -.502E+02 -.232E+02 -.342E+02   0.500E+02 0.229E+02 0.338E+02   0.210E+00 0.226E+00 0.381E+00   0.476E-02 0.438E-03 -.140E-02
   -.278E+02 0.390E+02 0.132E+01   0.279E+02 -.387E+02 -.153E+01   -.113E+00 -.298E+00 0.212E+00   0.324E-02 -.222E-02 0.282E-02
   -.360E+02 -.552E+01 0.560E+02   0.358E+02 0.521E+01 -.557E+02   0.194E+00 0.312E+00 -.293E+00   0.285E-02 0.625E-03 0.335E-02
   0.141E+02 -.308E+02 0.494E+01   -.141E+02 0.309E+02 -.482E+01   0.187E-01 -.110E+00 -.120E+00   0.253E-03 0.248E-02 0.588E-02
   0.599E+02 0.178E+02 -.324E+02   -.594E+02 -.180E+02 0.324E+02   -.467E+00 0.156E+00 -.307E-01   -.126E-02 0.329E-03 0.223E-02
   0.147E+02 -.608E+02 -.241E+02   -.143E+02 0.610E+02 0.243E+02   -.310E+00 -.234E+00 -.195E+00   -.109E-02 0.505E-02 -.261E-02
   0.215E+02 -.241E+01 -.267E+02   -.209E+02 0.213E+01 0.271E+02   -.612E+00 0.275E+00 -.418E+00   0.370E-03 0.204E-02 -.240E-02
   -.653E+01 -.163E+02 0.222E+02   0.646E+01 0.162E+02 -.226E+02   0.605E-01 0.711E-01 0.388E+00   0.237E-02 0.528E-02 -.448E-02
   -.443E+02 0.285E+02 -.295E+02   0.440E+02 -.285E+02 0.291E+02   0.286E+00 0.260E-01 0.413E+00   0.264E-02 0.197E-02 -.228E-02
   -.668E+02 0.835E+01 -.475E+01   0.673E+02 -.853E+01 0.495E+01   -.537E+00 0.187E+00 -.205E+00   0.319E-02 0.339E-02 0.111E-02
   0.495E+01 0.435E+02 0.852E+02   -.505E+01 -.434E+02 -.851E+02   0.944E-01 -.372E-01 -.148E+00   0.190E-02 -.500E-05 0.255E-02
   0.945E+02 -.207E+02 -.235E+02   -.944E+02 0.200E+02 0.234E+02   -.115E+00 0.712E+00 0.395E-01   -.455E-02 0.423E-03 0.716E-02
   0.670E+02 -.339E+02 -.110E+02   -.669E+02 0.338E+02 0.110E+02   -.793E-01 0.186E+00 -.167E-02   -.227E-02 -.639E-03 0.373E-02
   0.161E+03 0.116E+01 -.122E+02   -.161E+03 -.148E+01 0.124E+02   -.423E-02 0.284E+00 -.201E+00   -.592E-02 0.405E-04 -.228E-02
   0.218E+02 0.829E+01 -.233E+02   -.216E+02 -.849E+01 0.237E+02   -.210E+00 0.186E+00 -.329E+00   0.121E-02 0.422E-04 -.207E-02
   0.221E+02 0.586E+01 0.428E+02   -.218E+02 -.641E+01 -.431E+02   -.294E+00 0.556E+00 0.271E+00   -.771E-03 -.478E-03 -.444E-02
   -.598E+02 -.660E+02 -.708E+02   0.595E+02 0.654E+02 0.703E+02   0.346E+00 0.632E+00 0.504E+00   0.282E-02 -.333E-03 -.291E-02
   -.200E+02 -.417E+02 -.602E+01   0.203E+02 0.414E+02 0.600E+01   -.283E+00 0.366E+00 0.330E-01   -.540E-03 0.204E-03 -.301E-03
   0.769E+01 -.104E+03 0.101E+03   -.823E+01 0.103E+03 -.101E+03   0.533E+00 0.638E+00 -.546E+00   -.119E-03 -.502E-03 0.150E-02
   -.402E+01 -.317E+02 0.992E+02   0.402E+01 0.321E+02 -.995E+02   -.439E-02 -.418E+00 0.346E+00   0.187E-02 -.674E-03 0.336E-02
   -.366E+02 0.138E+02 0.250E+02   0.367E+02 -.136E+02 -.249E+02   -.835E-01 -.230E+00 -.691E-01   0.248E-02 -.175E-02 0.207E-02
   -.441E+01 0.318E+01 -.309E+01   0.438E+01 -.330E+01 0.299E+01   0.286E-01 0.920E-01 0.107E+00   0.110E-02 -.108E-02 0.161E-02
   -.107E+02 0.681E+01 -.220E+02   0.107E+02 -.678E+01 0.221E+02   -.163E-01 -.496E-01 -.820E-01   -.146E-02 -.359E-02 -.235E-02
   -.357E+01 -.993E+00 -.117E+03   0.357E+01 0.114E+01 0.117E+03   -.348E-02 -.171E+00 -.605E+00   0.153E-02 -.140E-02 -.291E-02
   0.616E+02 0.627E+02 -.861E+02   -.611E+02 -.620E+02 0.857E+02   -.421E+00 -.666E+00 0.414E+00   -.256E-02 -.356E-02 -.161E-02
   0.254E+02 0.694E+02 0.818E+02   -.247E+02 -.687E+02 -.813E+02   -.705E+00 -.726E+00 -.443E+00   0.194E-02 -.132E-02 0.209E-02
   -.353E+01 0.238E+02 0.392E+02   0.350E+01 -.238E+02 -.388E+02   0.251E-01 -.420E-01 -.327E+00   0.660E-03 0.141E-02 0.265E-02
   -.132E+02 0.337E+01 -.726E+01   0.133E+02 -.330E+01 0.752E+01   -.481E-01 -.814E-01 -.257E+00   -.468E-03 0.164E-03 -.390E-03
   -.403E+01 0.748E+00 -.123E+02   0.400E+01 -.836E+00 0.124E+02   0.300E-01 0.790E-01 -.136E+00   -.225E-03 -.138E-02 -.205E-03
   0.234E+01 -.934E+01 -.192E+02   -.236E+01 0.949E+01 0.192E+02   0.168E-01 -.159E+00 -.671E-01   -.302E-02 -.299E-03 -.224E-02
   -.470E+01 0.107E+02 -.424E+02   0.470E+01 -.107E+02 0.422E+02   0.533E-02 0.306E-02 0.196E+00   0.798E-04 -.167E-02 -.254E-02
   0.438E+02 -.232E+02 -.346E+02   -.436E+02 0.230E+02 0.342E+02   -.197E+00 0.216E+00 0.393E+00   -.429E-02 0.718E-03 -.410E-03
   -.441E+01 0.543E+02 0.125E+02   0.441E+01 -.542E+02 -.125E+02   -.350E-03 -.149E-01 -.247E-02   0.927E-03 0.241E-03 0.239E-03
   0.279E+02 -.811E+01 0.579E+02   -.277E+02 0.782E+01 -.576E+02   -.203E+00 0.298E+00 -.291E+00   -.116E-02 0.107E-02 0.299E-02
   -.403E+01 0.299E+02 0.507E+02   0.397E+01 -.302E+02 -.508E+02   0.569E-01 0.317E+00 0.182E+00   0.794E-03 0.606E-03 0.183E-02
   -.656E+02 0.165E+02 -.320E+02   0.651E+02 -.167E+02 0.320E+02   0.453E+00 0.121E+00 -.332E-01   0.601E-03 0.127E-02 0.394E-03
   -.400E+01 0.906E+00 -.244E+02   0.397E+01 -.860E+00 0.245E+02   0.355E-01 -.502E-01 -.110E+00   -.105E-02 0.160E-02 -.117E-02
   -.267E+02 -.325E+01 -.284E+02   0.260E+02 0.295E+01 0.289E+02   0.619E+00 0.290E+00 -.437E+00   -.124E-02 0.316E-02 -.128E-02
   -.530E+01 0.423E+01 -.518E+02   0.527E+01 -.440E+01 0.521E+02   0.344E-01 0.174E+00 -.301E+00   0.118E-03 0.210E-02 -.157E-02
   0.327E+02 0.272E+02 -.277E+02   -.326E+02 -.273E+02 0.273E+02   -.873E-01 0.599E-01 0.402E+00   -.218E-02 0.307E-02 -.103E-02
   -.125E+02 0.448E+02 0.858E+02   0.126E+02 -.448E+02 -.857E+02   -.824E-01 -.221E-01 -.137E+00   0.576E-03 0.796E-03 0.189E-02
   -.765E+02 -.344E+02 -.118E+02   0.765E+02 0.342E+02 0.118E+02   0.336E-01 0.198E+00 -.269E-01   0.328E-02 0.140E-03 0.253E-02
   -.454E+01 -.495E+01 -.411E+02   0.451E+01 0.506E+01 0.415E+02   0.264E-01 -.110E+00 -.389E+00   0.252E-03 0.877E-03 0.547E-03
[...]
   0.190E+02 -.689E+00 -.164E+02   -.191E+02 0.652E+00 0.166E+02   0.134E+00 0.301E-01 -.208E+00   -.185E-03 0.530E-02 0.372E-02
   0.116E+02 -.401E+02 -.258E+02   -.114E+02 0.401E+02 0.252E+02   -.164E+00 -.807E-01 0.614E+00   -.735E-03 0.383E-02 0.561E-02
   0.774E+01 -.123E+03 -.138E+03   -.780E+01 0.123E+03 0.138E+03   0.548E-01 -.171E+00 -.578E-01   -.204E-03 0.228E-02 0.837E-02
   0.234E+03 0.199E+01 -.557E+02   -.233E+03 -.123E+01 0.554E+02   -.563E+00 -.822E+00 0.451E+00   -.527E-02 -.441E-03 0.413E-02
   0.960E+01 0.157E+03 0.112E+03   -.959E+01 -.154E+03 -.112E+03   -.108E-01 -.221E+01 0.638E+00   -.141E-03 -.485E-02 -.476E-02
   0.143E+03 0.927E+02 0.135E+03   -.142E+03 -.920E+02 -.135E+03   -.821E+00 -.699E+00 -.468E+00   -.341E-02 -.385E-03 -.844E-02
   0.199E+02 -.327E+02 0.151E+03   -.201E+02 0.329E+02 -.151E+03   0.193E+00 -.157E+00 0.102E+00   0.557E-03 0.136E-02 -.627E-02
   0.402E+02 -.466E+02 -.461E+02   -.398E+02 0.462E+02 0.461E+02   -.371E+00 0.401E+00 -.782E-01   -.108E-02 -.644E-03 -.131E-02
   0.208E+02 -.984E+02 -.361E+02   -.210E+02 0.986E+02 0.362E+02   0.196E+00 -.267E+00 -.772E-01   -.112E-02 0.317E-02 0.213E-02
   0.116E+03 -.121E+03 -.431E+02   -.116E+03 0.120E+03 0.427E+02   -.376E+00 0.468E+00 0.390E+00   -.303E-02 0.675E-03 0.476E-02
   -.118E+02 -.261E+02 0.341E+02   0.118E+02 0.258E+02 -.340E+02   -.105E-01 0.267E+00 -.129E+00   0.103E-02 0.241E-03 0.648E-03
   -.278E+01 -.311E+02 0.269E+02   0.289E+01 0.310E+02 -.266E+02   -.106E+00 0.688E-01 -.320E+00   0.223E-02 0.630E-02 -.290E-02
   -.450E+01 -.160E+02 0.798E+01   0.451E+01 0.160E+02 -.776E+01   -.108E-01 0.245E-01 -.214E+00   0.228E-02 -.132E-02 -.212E-02
   0.688E+01 0.448E+02 0.241E+02   -.682E+01 -.450E+02 -.242E+02   -.545E-01 0.170E+00 0.944E-01   -.127E-02 -.306E-02 0.719E-02
   -.237E+00 0.127E+01 0.354E-01   0.326E-11 -.355E-12 -.174E-12   0.244E+00 -.126E+01 -.316E-01   -.117E-02 -.211E-03 -.439E-03

 POSITION                                       TOTAL-FORCE (eV/Angst)
      3.00526      9.03032      0.00706         0.000472     -0.000268     -0.000853
      9.02520      2.94528      3.05825         0.000752     -0.100382      0.003548
      3.01829      6.04799      9.01778        -0.001111      0.010781     -0.008611
      9.02999      0.04460      9.06551        -0.000990     -0.025850     -0.029638
      0.04464     12.04175      0.02755        -0.017691     -0.022552      0.022338
      1.50873      1.49120      1.52686         0.000971     -0.014888     -0.004883
      0.00119     11.99947      3.02828        -0.026772     -0.008744      0.004896
      1.50016      1.50828      4.49717         0.008660     -0.022705      0.000224
      0.00563      0.00911      6.02225        -0.009837     -0.029858     -0.018804
      1.42832      1.59006      7.43335         0.003074     -0.001250      0.003545
     11.98969      0.00861      9.04845         0.004702     -0.009426     -0.004551
      1.46604      1.56924     10.60691         0.003730      0.005812      0.003932
      0.00626      3.01449      0.02451         0.002840     -0.006671     -0.004069
      1.51865      4.52139      1.48622         0.005433     -0.007543      0.006387
      0.00451      2.96194      3.03393         0.021735     -0.005861      0.007339
      1.48763      4.51463      4.49143         0.006898     -0.006547     -0.000378
     12.01981      3.00482      5.99964         0.016198     -0.006075      0.012340
      1.47541      4.51315      7.49091         0.005672     -0.001128      0.005027
      0.00445      3.04914      9.03097         0.001945      0.001812      0.001218
      1.48259      4.52663     10.56612         0.003940      0.004794     -0.002927
      0.00946      6.04665      0.00397         0.007362     -0.002603      0.000536
      1.53288      7.52895      1.46931         0.006483     -0.004014     -0.014398
     12.02198      6.03589      3.01787         0.013451     -0.023265      0.004070
      1.49953      7.50532      4.48454        -0.005408     -0.004414      0.014115
     -0.00180      6.01579      5.98447        -0.001983      0.001693      0.005501
      1.50020      7.57426      7.48062        -0.007105      0.010156     -0.003368
      0.00927      6.03116      9.04068        -0.003051      0.005323      0.003431
      1.51606      7.58764     10.60111        -0.001232      0.004027      0.004455
     12.03616      9.01354      0.02878        -0.027577      0.017262      0.029853
      1.54846     10.53943      1.49044        -0.023670      0.003699     -0.002800
      0.13659      9.03052      3.02847         0.042128     -0.032223     -0.008843
      1.52550     10.57829      4.49692        -0.025649     -0.005400     -0.000593
     12.03803      9.04965      5.98875        -0.030870      0.011190     -0.026237
      1.41987     10.48853      7.43832        -0.006115      0.006530     -0.012013
      0.00650      9.04127      9.04401         0.004673      0.009547      0.007875
      1.49813     10.46923     10.63185        -0.004287      0.004693      0.020967
      3.01049      0.01434      0.04541         0.000098     -0.008050      0.010097
      4.51475      1.49402      1.52187        -0.004651     -0.015066     -0.003691
      3.01602      0.02299      3.00556        -0.002933     -0.029874      0.002821
      4.52815      1.50861      4.48806        -0.012360     -0.021126      0.000411
      3.01564      0.01132      5.93232        -0.000860     -0.020161     -0.000633
      4.59609      1.58256      7.42889        -0.001784      0.001960      0.002225
      4.55014      1.57572     10.60721        -0.000330      0.007061      0.007782
      3.01151      3.02478     12.04811        -0.000450      0.003459     -0.001734
      4.51909      4.51747      1.48630        -0.003631     -0.006235      0.003324
      3.01451      3.02243      2.98764        -0.000082     -0.010182     -0.000751
      4.54269      4.51415      4.48558        -0.003383     -0.005612     -0.001447
      3.01452      3.04403      5.98916         0.000246     -0.005465     -0.000171
      4.55688      4.51533      7.48574        -0.003606      0.000851      0.005654
      3.01189      3.07851      9.02605        -0.000168     -0.002341      0.000016
      4.54398      4.52582     10.56875        -0.004067      0.005702     -0.005435
      3.01293      6.02089     12.03596         0.000492      0.005538     -0.002260
      4.48655      7.51988      1.46675        -0.004118     -0.001812     -0.015846
      3.01141      6.00254      2.98616         0.001228     -0.002485      0.009481
      4.53282      7.49319      4.47843         0.008277     -0.002563      0.013605
      3.01613      6.03704      5.98868         0.002004      0.005690      0.001982
      4.55873      7.57026      7.48145         0.009212      0.007873     -0.004370
      4.50920      7.58167     10.60182         0.000306      0.006057      0.002340
      4.46421     10.53623      1.48566         0.024391      0.003056     -0.003910
      3.01143      9.01157      3.00240         0.000107      0.007389     -0.002711
[...]
      9.01465      6.01189      5.97735        -0.000118     -0.016569      0.007408
      9.01525      5.99540      9.03296        -0.000075     -0.001381      0.006626
     10.54201      7.48185     10.57010         0.008757     -0.001622      0.005941
      9.02777      8.96720     11.95094         0.001006     -0.048090     -0.038858
     10.64453     10.31539      1.59174        -0.199778     -0.060516      0.178417
      9.02839     11.76005      3.09757         0.002141      0.930943      0.043144
     10.58015     10.47008      4.58244        -0.159171     -0.038369     -0.144122
      9.01454      9.04790      6.10941        -0.002513     -0.031635      0.041298
     10.54896     10.56747      7.52966         0.009302      0.005870     -0.032572
      9.02128      9.02169      9.06355         0.000570     -0.000569      0.000008
     10.65102     10.45017     10.52831         0.026561     -0.009281     -0.003187
     10.52409      4.50250      1.53480         0.001106     -0.016979      0.002789
     10.52973      7.50638      7.51725         0.004052     -0.002990      0.007136
      3.00739     12.05501      8.98482         0.001515      0.008024      0.004430
      9.01179     11.99107      0.10055         0.002167     -0.032066     -0.035722
    total drift:                                0.006088      0.006289      0.003413

  FREE ENERGIE OF THE ION-ELECTRON SYSTEM (eV)
  free  energy   TOTEN  =     -1138.66411259 eV

  energy  without entropy=    -1138.57340756  energy(sigma->0) =    -1138.63387758