 vasp.6.4.2 20Jul23 (build Sep 20 2024 16:56:05) complex
 executed on              LinuxNV date 2024.12.10  17:26:12
 OpenACC runtime initialized ...    4 GPUs detected

 INCAR:
   ENCUT = 520.000000
   POTIM = 0.200000
   SIGMA = 0.200000
   EDIFF = 1.00e-06
   EDIFFG = -1.00e-02
   ALGO = Normal
   GGA = PE
   PREC = Accurate
   IBRION = 2
   ISIF = 2
   ISMEAR = 1
   LORBIT = 11
   NELM = 100
   NSW = -1
   LCHARG = .TRUE.
   LWAVE = .FALSE.
   LREAL = .FALSE.
   NBANDS = 1024
   NSIM = 256

 POTCAR:    PAW_PBE V_pv 07Sep2000
 POTCAR:    PAW_PBE Cr_pv 02Aug2007
 POTCAR:    PAW_PBE Ti_pv 07Sep2000
 POTCAR:    PAW_PBE V_pv 07Sep2000
   VRHFIN =V: p6 d4 s1

   TITEL  = PAW_PBE V_pv 07Sep2000
   POMASS =   50.941; ZVAL   =   11.000    mass and valenz
   ENMAX  =  263.673; ENMIN  =  197.755 eV

   TITEL  = PAW_PBE Cr_pv 02Aug2007
   POMASS =   51.996; ZVAL   =   12.000    mass and valenz
   ENMAX  =  265.681; ENMIN  =  199.261 eV

   TITEL  = PAW_PBE Ti_pv 07Sep2000
   POMASS =   47.880; ZVAL   =   10.000    mass and valenz
   ENMAX  =  222.335; ENMIN  =  166.751 eV

  PAW_PBE V_pv 07Sep2000                :
  PAW_PBE Cr_pv 02Aug2007               :
  PAW_PBE Ti_pv 07Sep2000               :

 POSCAR: V  Cr Ti
  positions in cartesian coordinates
 exchange correlation table for  LEXCH =        8
   RHO(1)=    0.500       N(1)  =     2000
   RHO(2)=  100.500       N(2)  =     4000

 ion  position               nearest neighbor table
   1  0.008  0.001  0.007-   2 2.57  22 2.59  28 2.60   5 2.62 114 2.62  95 2.62 115 2.62  24 2.85
                           118 3.00
   2  0.996  0.006  0.203-  24 2.39  96 2.52   6 2.53  29 2.55   3 2.55 110 2.56   1 2.57   7 2.86

   3  0.007  0.998  0.399-   2 2.55   4 2.59  30 2.62   7 2.63  19 2.67 111 2.68  97 2.68  18 2.84

   4  0.004  0.001  0.598-   8 2.55  25 2.56  98 2.58  31 2.58   3 2.59 112 2.60  20 2.60   5 2.69
                            19 2.90 116 3.00
   5  0.001  0.003  0.805- 118 2.50 116 2.53  27 2.57 113 2.61  26 2.61   1 2.62  21 2.62   4 2.69
                            98 2.88 114 2.91 115 2.93
   6  0.005  0.202  0.199-   2 2.53 115 2.53   9 2.55  28 2.56  34 2.59  99 2.59  95 2.60   7 2.60
                           119 2.94
   7  0.004  0.199  0.398- 100 2.58  35 2.59   6 2.60  96 2.61  29 2.61  10 2.61   8 2.63   3 2.63
                             2 2.86
   8  0.005  0.199  0.601-  30 2.50   4 2.55  97 2.56  36 2.60  11 2.61 116 2.62   7 2.63 122 2.67

   9  0.001  0.397  0.198-  14 2.53 119 2.53 117 2.54   6 2.55  33 2.58  10 2.61  39 2.63 102 2.64
                           101 2.88 115 2.96
  10  0.005  0.402  0.402-  15 2.55  34 2.56  40 2.59 103 2.60  11 2.60   7 2.61   9 2.61  99 2.64

  11  0.003  0.399  0.600-  35 2.57 100 2.59  10 2.60  41 2.60   8 2.61 104 2.61  16 2.64  12 2.69
                           122 3.01
  12  0.008  0.401  0.809-  36 2.53  37 2.53 117 2.56 116 2.58  17 2.62 124 2.67  11 2.69 122 2.69
                            32 2.86 123 2.98
  13  0.005  0.607  0.009-  43 2.57  37 2.61  14 2.61 105 2.64 124 2.65 117 2.65  17 2.66  24 2.82

[...]

  27  0.199  0.201  0.002-  28 2.54  22 2.54 115 2.54  32 2.57  31 2.57   5 2.57  58 2.62  52 2.63
                           116 2.92
  28  0.204  0.209  0.201-  23 2.46  33 2.47  27 2.54   6 2.56  59 2.59   1 2.60  29 2.64  53 2.67
                           115 2.93
  29  0.202  0.193  0.398-   2 2.55   7 2.61  60 2.62  30 2.64  28 2.64  54 2.65  34 2.68  23 2.86
                            55 2.87
  30  0.200  0.206  0.604-   8 2.50  55 2.54  35 2.56  61 2.58   3 2.62  31 2.63  25 2.63  29 2.64

[...]

  48  0.412  0.003  0.196-  23 2.47  73 2.47  47 2.55  78 2.59  68 2.62  42 2.65  49 2.68  53 2.71
                            74 2.91  67 2.92  77 2.92
  49  0.392  0.001  0.394-  79 2.46  43 2.50  50 2.68  48 2.68  69 2.68  74 2.69  54 2.71  23 2.80
                           120 3.04
  50  0.391  0.995  0.598-  25 2.51  44 2.55  51 2.56  70 2.56 120 2.63  55 2.64 121 2.66  49 2.68
                            45 2.88
  51  0.401  0.001  0.800-  47 2.55  50 2.56  45 2.59  71 2.60  76 2.61  26 2.62  56 2.63  75 2.68
                           121 3.02
  52  0.401  0.202  0.998-  53 2.52  56 2.53  57 2.60  81 2.60  26 2.61  47 2.63  27 2.63  76 2.64
                            22 2.92  80 2.92
  53  0.410  0.211  0.198-  52 2.52  58 2.55  77 2.56  82 2.61  22 2.63  54 2.64  23 2.66  28 2.67
                            48 2.71  81 2.84
  54  0.417  0.221  0.407-  23 2.35  83 2.47  59 2.52  78 2.58  53 2.64  29 2.65  55 2.69  79 2.70
                            49 2.71  82 2.87
  55  0.389  0.196  0.594-  79 2.52  30 2.54  60 2.60  56 2.64  50 2.64  84 2.68  54 2.69  29 2.87
                            25 2.89
  56  0.395  0.201  0.801-  52 2.53  80 2.57  25 2.57  31 2.60  61 2.60  51 2.63  55 2.64 121 2.67

[...]

  77  0.604  0.203  0.199-  76 2.55  53 2.56  78 2.58  81 2.59  73 2.61  99 2.62 103 2.62  47 2.65
                           102 2.91  48 2.92
  78  0.607  0.203  0.398-  79 2.52  77 2.58  54 2.58 104 2.59  48 2.59 100 2.59  74 2.63  82 2.66
                           122 2.98
  79  0.578  0.197  0.579-  49 2.46  78 2.52  55 2.52  83 2.54  54 2.70 120 2.70 121 2.72 122 2.79
                           124 2.84
  80  0.597  0.396  0.997- 106 2.56  56 2.57  81 2.59  76 2.61  57 2.62  84 2.63  85 2.65 101 2.72
                            52 2.92 121 2.97
  81  0.600  0.401  0.200-  82 2.58  86 2.59  77 2.59  80 2.59  58 2.60  52 2.60 102 2.61 107 2.61
                           106 2.83  53 2.84
  82  0.607  0.410  0.403-  87 2.57 108 2.58  81 2.58  53 2.61  83 2.61 103 2.62  59 2.65  78 2.66
                            54 2.87 107 2.87
  83  0.603  0.408  0.602-  54 2.47  79 2.54  88 2.55  84 2.59  82 2.61  60 2.62 104 2.64 109 2.80
                           124 2.99
  84  0.594  0.407  0.798-  61 2.52  89 2.52 105 2.54  83 2.59  80 2.63 121 2.67  55 2.68 124 2.69

[...]

  86  0.597  0.599  0.200-  63 2.54 106 2.56  81 2.59  87 2.59  57 2.59  91 2.60  85 2.62 112 2.63
                            58 2.91
  87  0.601  0.605  0.403-  92 2.56  82 2.57  64 2.58  88 2.59  86 2.59 113 2.59 107 2.61  58 2.61

[...]

  92  0.602  0.803  0.404- 112 2.56  87 2.56  74 2.59  93 2.60  69 2.63  91 2.64  63 2.65  98 2.67
                           120 2.99
  93  0.603  0.802  0.605-  88 2.57  94 2.58  92 2.60 113 2.61  70 2.61 118 2.62  64 2.63 120 2.67
                           114 2.90
  94  0.602  0.800  0.802- 114 2.54  89 2.54  90 2.55  75 2.55  93 2.58  71 2.60  65 2.60  95 2.61
                           118 3.00
  95  0.805  0.003  0.999- 118 2.49 119 2.53   6 2.60  94 2.61   1 2.62  96 2.62 110 2.64  72 2.64
                           114 2.89  75 2.89 115 2.93
  96  0.799  0.001  0.199-   2 2.52  73 2.55 111 2.59  90 2.59  99 2.59   7 2.61  95 2.62  97 2.64

[...]

 105  0.794  0.591  0.998-  18 2.53  84 2.54  85 2.60 101 2.63  13 2.64 109 2.65 106 2.65 110 2.65
                           124 2.93
 106  0.790  0.589  0.200- 102 2.55  80 2.56  86 2.56 107 2.56  18 2.59 105 2.65  19 2.68  14 2.71
                           111 2.73  81 2.83
 107  0.800  0.600  0.404- 108 2.56 106 2.56 103 2.59  87 2.61  81 2.61  20 2.62 112 2.65  15 2.65
                            19 2.84  82 2.87
 108  0.805  0.606  0.604- 104 2.55 107 2.56  21 2.58  82 2.58 113 2.58 109 2.62  16 2.62  88 2.62

 109  0.820  0.624  0.816-  17 2.58 114 2.59 108 2.62 105 2.65  89 2.65 124 2.69  21 2.77  83 2.80
                           110 2.85
 110  0.807  0.802  0.005-   2 2.56  89 2.59  90 2.64  95 2.64 111 2.64 105 2.65 114 2.67  24 2.84
                           109 2.85
 111  0.789  0.800  0.201-  18 2.42  91 2.45 112 2.57  85 2.58  96 2.59 110 2.64   3 2.68 106 2.73

 112  0.798  0.803  0.403- 113 2.55  92 2.56  19 2.56 111 2.57  97 2.58   4 2.60  86 2.63 107 2.65

 113  0.803  0.803  0.601-  98 2.52 112 2.55 114 2.58 108 2.58  20 2.59  87 2.59   5 2.61  93 2.61
                           118 2.98
 114  0.801  0.812  0.801- 118 2.38  94 2.54 113 2.58 109 2.59   1 2.62  21 2.62  88 2.64 110 2.67
                            95 2.89  93 2.90   5 2.91
 115  0.003  0.199  0.003-   6 2.53  27 2.54 118 2.56  33 2.57 119 2.59 116 2.61 117 2.61   1 2.62
                           123 2.78  95 2.93   5 2.93  28 2.93  32 2.96   9 2.96
 116  0.009  0.200  0.804-  31 2.43  32 2.50 123 2.53   5 2.53  98 2.55  12 2.58 115 2.61   8 2.62
                            27 2.92  36 2.99   4 3.00 118 3.04 117 3.04 122 3.12
 117  0.009  0.404  0.007-  38 2.43  32 2.50 123 2.52   9 2.54  12 2.56 101 2.57 115 2.61  13 2.65
                            33 2.94  14 2.95  37 2.99 116 3.04 119 3.05 124 3.14
 118  0.808  0.999  0.807- 114 2.38  95 2.49   5 2.50 123 2.52 115 2.56  98 2.58  75 2.58  93 2.62
                           113 2.98  94 3.00   1 3.00 119 3.02 116 3.04
 119  0.805  0.200  0.006-  99 2.45 123 2.51  95 2.53   9 2.53 101 2.55  75 2.56  76 2.59 115 2.59
                             6 2.94  72 2.98 102 2.99 118 3.02 117 3.05 121 3.15
 120  0.596  0.002  0.597-  50 2.63  74 2.65  69 2.66  93 2.67  75 2.70  79 2.70  98 2.73 123 2.80
                           121 2.97  70 2.98  92 2.99 122 3.00  49 3.04
 121  0.599  0.202  0.796-  50 2.66  76 2.66  56 2.67  84 2.67 101 2.68  75 2.72  79 2.72 123 2.79
                           120 2.97  80 2.97  51 3.02 124 3.03 119 3.15
 122  0.799  0.200  0.598- 100 2.65  74 2.67   8 2.67  98 2.67 104 2.69  12 2.69 123 2.78  79 2.79
                            97 2.96  78 2.98 120 3.00  11 3.01 124 3.04 116 3.12
 123  0.820  0.201  0.819- 119 2.51 117 2.52 118 2.52 116 2.53 115 2.78 122 2.78 121 2.79 120 2.80
                           124 2.84 101 2.96  98 2.98  12 2.98  75 3.00
 124  0.802  0.407  0.800-  13 2.65  12 2.67 104 2.67 109 2.69  84 2.69 101 2.70 123 2.84  79 2.84
                            17 2.93 105 2.93  83 2.99 121 3.03 122 3.04 117 3.14

  LATTYP: Found a base centered monoclinic cell.
 ALAT       =    15.0482117230
 B/A-ratio  =     1.4081981607
 C/A-ratio  =     1.6569313785
 COS(beta)  =    -0.9052205732

  Lattice vectors:

 A1 = (   4.3071057600,   6.1309426610, -10.6177469370)
 A2 = ( -12.9951470410,   0.0135483230,  -0.0223585750)
 A3 = (  13.0316404910,  -0.0404660660,  21.2572762500)

Analysis of symmetry for initial positions (statically):
 Subroutine PRICEL returns:
 Original cell was already a primitive cell.

 Routine SETGRP: Setting up the symmetry group for a
 base centered monoclinic supercell.

 Subroutine GETGRP returns: Found  1 space group operations
 (whereof  1 operations were pure point group operations)
 out of a pool of  4 trial point group operations.

The static configuration has the point symmetry C_1 .

Analysis of symmetry for dynamics (positions and initial velocities):
 Subroutine PRICEL returns:
 Original cell was already a primitive cell.

 Routine SETGRP: Setting up the symmetry group for a
 base centered monoclinic supercell.

 Subroutine GETGRP returns: Found  1 space group operations
 (whereof  1 operations were pure point group operations)
 out of a pool of  4 trial point group operations.

The dynamic configuration has the point symmetry C_1 .

[...]
   -.562E+01 0.369E+02 0.674E+02   0.540E+01 -.371E+02 -.738E+02   0.239E+00 0.238E+00 0.390E+01   0.703E-03 0.177E-02 -.673E-05
   -.111E+03 -.118E+03 0.191E+03   0.111E+03 0.117E+03 -.190E+03   0.607E+00 0.438E+00 -.469E+00   0.273E-02 0.199E-02 -.242E-02
   -.450E+02 0.219E+01 0.502E+02   0.454E+02 -.154E+01 -.502E+02   -.464E+00 -.653E+00 0.284E-01   0.179E-03 -.820E-03 0.115E-02
   -.871E+02 0.396E+02 -.457E+01   0.873E+02 -.393E+02 0.468E+01   -.180E+00 -.321E+00 -.107E+00   -.307E-02 -.271E-02 0.742E-03
   -.277E+02 0.130E+03 -.708E+02   0.277E+02 -.129E+03 0.711E+02   0.649E-01 -.571E+00 -.214E+00   -.135E-02 -.324E-02 -.411E-03
   -.987E+02 0.251E+03 -.250E+02   0.982E+02 -.249E+03 0.257E+02   0.443E+00 -.165E+01 -.688E+00   0.390E-03 -.263E-02 -.147E-02
   -.127E+03 0.741E+02 0.120E+03   0.127E+03 -.743E+02 -.120E+03   0.797E-01 0.184E+00 -.127E+00   0.192E-02 -.684E-03 -.490E-02
   -.117E+03 -.788E+01 0.715E+02   0.118E+03 0.804E+01 -.715E+02   -.444E+00 -.171E+00 -.328E-01   -.936E-03 -.760E-03 -.400E-03
   -.529E+02 -.882E+02 -.123E+02   0.532E+02 0.889E+02 0.124E+02   -.197E+00 -.662E+00 -.752E-01   -.182E-02 -.221E-02 -.544E-03
   -.217E+02 -.387E+02 -.782E+02   0.216E+02 0.390E+02 0.783E+02   0.258E-01 -.235E+00 -.488E-01   -.119E-02 -.261E-02 -.129E-02
   -.168E+02 0.510E+02 -.420E+02   0.171E+02 -.511E+02 0.418E+02   -.253E+00 0.152E+00 0.150E+00   0.349E-03 -.269E-02 -.137E-02
   -.165E+02 0.394E+02 0.296E+01   0.162E+02 -.392E+02 -.250E+01   0.314E+00 -.201E+00 -.453E+00   0.183E-03 -.113E-02 -.248E-02
   -.999E+01 -.264E+02 0.442E+02   0.104E+02 0.265E+02 -.442E+02   -.375E+00 -.727E-01 0.448E-01   -.923E-03 -.296E-03 -.109E-02
   0.600E+02 -.742E+02 -.730E+01   -.599E+02 0.745E+02 0.748E+01   0.195E-02 -.369E+00 -.168E+00   -.226E-02 0.201E-02 0.415E-03
   0.228E+02 -.133E+03 -.770E+02   -.226E+02 0.133E+03 0.772E+02   -.200E+00 -.145E+00 -.251E+00   -.139E-02 0.868E-03 0.489E-03
   0.137E+02 -.877E+02 -.281E+02   -.138E+02 0.879E+02 0.279E+02   0.115E+00 -.197E+00 0.203E+00   -.288E-04 0.119E-02 0.343E-04
   0.144E+02 -.178E+02 -.173E+02   -.145E+02 0.178E+02 0.172E+02   0.111E+00 -.579E-01 0.756E-01   0.391E-03 0.483E-03 -.696E-04
   0.406E+02 -.349E+01 0.520E+01   -.401E+02 0.345E+01 -.552E+01   -.472E+00 0.501E-01 0.310E+00   -.919E-03 0.103E-02 0.726E-03
   0.147E+03 0.164E+02 -.183E+02   -.146E+03 -.169E+02 0.181E+02   -.101E+01 0.433E+00 0.251E+00   -.268E-02 0.127E-02 0.162E-02
   0.118E+03 -.826E+02 -.975E+02   -.116E+03 0.812E+02 0.973E+02   -.164E+01 0.143E+01 0.363E+00   -.249E-02 0.373E-02 0.130E-02
   0.506E+02 -.255E+03 0.114E+01   -.503E+02 0.253E+03 -.468E+00   -.341E+00 0.173E+01 -.605E+00   0.107E-02 0.359E-02 0.368E-03
   -.170E+02 -.741E+02 0.171E+02   0.169E+02 0.741E+02 -.171E+02   0.164E+00 -.487E-01 -.451E-01   0.227E-02 0.206E-02 -.411E-03
   0.308E+02 0.543E+01 -.515E+01   -.307E+02 -.518E+01 0.515E+01   -.108E+00 -.218E+00 -.379E-03   -.877E-03 -.143E-03 0.243E-02
   0.157E+02 0.135E+02 0.745E+00   -.154E+02 -.132E+02 -.772E+00   -.320E+00 -.328E+00 0.324E-01   -.149E-03 -.918E-03 0.119E-02
   0.730E+02 0.620E+02 -.542E+02   -.724E+02 -.623E+02 0.540E+02   -.712E+00 0.390E+00 0.189E+00   -.170E-02 -.756E-03 0.101E-02
   0.185E+03 0.253E+02 -.682E+02   -.183E+03 -.256E+02 0.687E+02   -.149E+01 0.311E+00 -.369E+00   -.135E-02 0.351E-03 0.321E-03
   -.345E+02 -.146E+03 0.752E+02   0.346E+02 0.146E+03 -.753E+02   -.406E-01 -.409E-01 0.179E+00   0.744E-03 0.179E-02 -.187E-02
   -.419E+02 -.776E+02 0.648E+02   0.421E+02 0.778E+02 -.647E+02   -.250E+00 -.149E+00 -.581E-01   0.228E-02 0.690E-03 -.693E-04
   -.485E+02 0.508E+01 0.389E+02   0.485E+02 -.520E+01 -.390E+02   -.442E-01 0.100E+00 0.128E+00   0.669E-03 -.146E-02 0.415E-03
   -.117E+02 0.650E+02 -.396E+02   0.114E+02 -.655E+02 0.397E+02   0.290E+00 0.367E+00 -.981E-01   -.689E-03 -.248E-02 0.112E-03
   0.497E+02 0.160E+03 -.632E+02   -.494E+02 -.159E+03 0.651E+02   -.266E+00 -.167E+00 -.191E+01   -.144E-02 -.336E-02 -.794E-03
   -.237E+02 0.136E+03 0.138E+03   0.240E+02 -.135E+03 -.137E+03   -.275E+00 -.261E+00 -.107E+01   0.117E-02 -.158E-02 -.270E-02
   -.117E+03 -.165E+02 0.101E+03   0.116E+03 0.166E+02 -.102E+03   0.258E+00 -.159E+00 0.435E+00   0.303E-02 -.317E-03 -.184E-02
   -.532E+02 -.146E+02 0.272E+02   0.533E+02 0.145E+02 -.272E+02   -.135E+00 0.556E-01 0.545E-01   0.812E-03 -.614E-03 0.270E-03
   -.308E+02 0.560E+01 -.275E+02   0.307E+02 -.569E+01 0.275E+02   0.487E-01 0.782E-01 -.884E-01   -.498E-03 -.200E-02 0.542E-04
   -.228E+02 0.627E+02 -.448E+02   0.231E+02 -.620E+02 0.448E+02   -.241E+00 -.660E+00 -.218E-01   -.439E-03 -.214E-02 -.591E-03
   -.525E+02 0.759E+02 -.358E+01   0.528E+02 -.757E+02 0.374E+01   -.271E+00 -.170E+00 -.159E+00   0.823E-03 -.249E-02 -.264E-02
[...]
   -.804E+02 -.348E+02 -.131E+02   0.795E+02 0.351E+02 0.128E+02   0.991E+00 -.372E+00 0.209E+00   0.162E-02 0.244E-02 0.638E-03
   -.218E+02 -.448E+02 0.104E+02   0.212E+02 0.443E+02 -.104E+02   0.554E+00 0.481E+00 -.732E-01   -.652E-03 0.226E-02 0.318E-03
   -.118E+02 0.216E+02 0.118E+02   0.118E+02 -.220E+02 -.119E+02   0.134E-01 0.344E+00 0.152E+00   -.237E-02 0.745E-03 0.234E-02
   -.895E+02 0.167E+03 -.489E+02   0.896E+02 -.168E+03 0.488E+02   -.103E+00 0.520E+00 0.164E+00   0.763E-03 0.134E-02 0.213E-02
   -.230E-01 0.269E+02 0.103E+02   -.428E-01 -.269E+02 -.105E+02   0.735E-01 -.379E-01 0.219E+00   -.961E-03 -.287E-02 -.172E-02
   0.918E+02 -.725E+02 0.149E+03   -.910E+02 0.725E+02 -.150E+03   -.789E+00 -.896E-01 0.414E+00   -.380E-02 -.257E-02 0.590E-03
   0.127E+03 -.127E+03 0.122E+03   -.127E+03 0.128E+03 -.121E+03   -.333E-01 -.668E+00 -.715E+00   -.151E-02 -.230E-02 -.164E-02
   0.936E+02 -.490E+02 0.132E+03   -.937E+02 0.485E+02 -.133E+03   0.770E-01 0.483E+00 0.381E+00   -.634E-03 0.114E-02 0.171E-02
   0.107E+03 -.666E+02 0.123E+03   -.108E+03 0.661E+02 -.122E+03   0.648E+00 0.535E+00 -.699E+00   0.186E-02 -.111E-02 -.220E-02
   0.384E+02 -.123E+03 -.256E+02   -.382E+02 0.122E+03 0.255E+02   -.216E+00 0.275E+00 0.103E+00   -.442E-03 0.539E-03 0.919E-03
   -.680E+02 -.651E+02 0.114E+03   0.677E+02 0.649E+02 -.114E+03   0.290E+00 0.239E+00 -.672E-01   0.116E-02 -.460E-03 -.102E-02
   0.137E+03 0.163E+02 -.482E+02   -.137E+03 -.161E+02 0.478E+02   -.729E-01 -.261E+00 0.384E+00   -.142E-02 -.795E-03 -.731E-04
   0.198E+03 -.146E+03 0.240E+03   -.198E+03 0.146E+03 -.240E+03   -.127E+00 0.303E-01 -.181E+00   -.151E-03 -.190E-02 -.501E-03
   0.413E+02 0.585E+02 0.782E+02   -.415E+02 -.583E+02 -.782E+02   0.201E+00 -.179E+00 -.253E-01   -.611E-03 0.178E-03 -.323E-03
   0.103E+01 -.452E+00 0.234E+00   0.314E-11 0.171E-12 0.148E-11   -.102E+01 0.453E+00 -.221E+00   -.214E-02 -.312E-02 -.151E-02

 POSITION                                       TOTAL-FORCE (eV/Angst)
      0.07267     -0.03717      0.07502        -0.075721      0.144091      0.030029
     12.04801     -1.17860      2.17389         0.108957     -0.056739      0.108755
     -5.96099      9.77948      4.21806        -0.057861      0.025958      0.060009
     -2.53156     -3.65005      6.35265        -0.010354     -0.003841     -0.005211
     -3.47257     -4.89049      8.54199         0.035880     -0.009921      0.005663
     -1.67635      1.25671      2.11307         0.010256     -0.014360      0.009264
     -2.53453     -0.00204      4.22428        -0.013908      0.006593     -0.029945
     -3.38792     -1.24465      6.37705        -0.004176      0.000311     -0.000541
     -2.55844      3.64869      2.09133         0.000025      0.019517      0.004132
     -3.40848      2.45818      4.25541        -0.000225     -0.002705     -0.008762
     -4.27394      1.20590      6.36475        -0.009343      0.006578      0.012766
     -5.11776     -0.05414      8.58496        -0.009582      0.020137     -0.000343
     -2.61261      7.38133      0.07881         0.078741     -0.150736      0.003109
     -3.44627      6.01644      2.14005        -0.021218      0.052934      0.003413
     -4.29132      4.85460      4.25921         0.005192     -0.033549     -0.027911
     -5.14955      3.69265      6.37322        -0.010978     -0.005459      0.014358
     -6.00584      2.41193      8.48318        -0.006577      0.001787      0.057529
      8.29296      8.11747      2.29936         0.273863      0.323074      0.563499
      7.69559      7.18136      4.37067        -0.039911     -0.040730      0.003739
     -6.04750      6.13090      6.38732        -0.000554     -0.004107      0.003866
     -6.94538      4.88315      8.54572         0.005213      0.007427      0.051280
     -1.64677     -6.03182     10.60240        -0.092234     -0.158054      0.245084
      2.06656     -0.82587      2.31282        -0.299315     -0.330886      0.593270
     -3.46887      9.77843      1.28944         0.025578      0.008454     -2.526763
      0.02777     -3.64663      6.37584        -0.000548     -0.008510      0.003594
     -5.20518      7.33699      8.47348        -0.002175     -0.003591      0.018067
      1.70563      2.45274      0.01849         0.016476     -0.036924      0.003580
      0.88050      1.32314      2.13496         0.021333     -0.051839      0.015111
      0.07478     -0.07716      4.22124        -0.042279      0.050239      0.069614
     -0.89303     -1.18108      6.40971         0.003816     -0.010685      0.012929
     -1.79339     -2.46102      8.52013         0.017910     -0.015748     -0.001743
     -3.47837     -1.26585     10.59104         0.009199      0.004154      0.011023
      0.01934      3.64050      2.11888         0.000085     -0.007742      0.002328
     -0.84733      2.44392      4.25845         0.002709      0.011259      0.004163
     -1.70517      1.24061      6.34423        -0.000488      0.005361      0.001594
     -2.59128      0.03409      8.49374         0.010513     -0.012878      0.006679
     -4.31305      1.25179     10.60262         0.026483     -0.013876      0.012210
     -0.85914      6.04484      2.05334        -0.009082      0.018062      0.009647
     -1.71177      4.89261      4.25070        -0.005495     -0.008648      0.003892
     -2.56534      3.67508      6.37630        -0.003730      0.002131      0.000843
     -3.47011      2.46345      8.49804         0.000861      0.005322     -0.004765
     -0.95449      9.84582     -0.00319         0.198564     -0.041712      0.058741
     -1.61522      8.53570      2.14243        -0.122382      0.030426      0.137280
     -2.65563      7.40611      4.20451         0.020982     -0.038368      0.065334
     -3.43856      6.13479      6.35063         0.002324     -0.002542     -0.005631
     -4.34028      4.88150      8.49661        -0.017034      0.028631     -0.001197
     -3.42900      6.13310     10.55379        -0.046479      0.002824      0.006068
      4.49920     -1.17517      2.08885        -0.102898      0.009256     -0.000769
      3.39557     -2.41692      4.19606         0.053529     -0.017484      0.065172
     -1.81261      8.51452      6.33766        -0.008573      0.007766      0.025999
      1.75985     -4.90294      8.50355        -0.017618      0.013550     -0.001890
      0.03075     -3.64377     10.59796        -0.018298     -0.021950      0.004658
      3.55460      1.37009      2.10435        -0.039396     -0.062966     -0.012744
      2.70877      0.20326      4.32165         0.028006      0.023238     -0.028634
      1.64392     -1.24723      6.31630         0.010663      0.011145     -0.006073
      0.80614     -2.44982      8.51095        -0.000777      0.001998      0.003635
     -0.87669     -1.21003     10.60430         0.007776     -0.009317      0.010577
      2.60118      3.73004      2.11952         0.004334     -0.019059     -0.010736
      1.71821      2.52507      4.26496        -0.001614      0.032756     -0.026745
      0.85312      1.22567      6.35644         0.002473      0.006931     -0.005055
[...]
      6.98415      9.78425      0.05396        -0.149610      0.030773      0.043654
      5.91401      8.55354      2.13474         0.094556     -0.018729     -0.005112
      5.14705      7.35454      4.27767        -0.040998     -0.006467     -0.022964
      4.35670      6.14409      6.38004        -0.007588     -0.010911      0.016420
      3.43105      5.01782      8.50583         0.006773     -0.010187      0.040189
     -0.83525      2.42256      0.02555         0.006737     -0.001081      0.017324
     -4.22279     -2.47368      8.53204         0.000623     -0.012768      0.012966
     -1.66861      4.90054      0.06950        -0.006518      0.012764      0.007683
      2.67897      7.27995      8.56701         0.000273     -0.011847     -0.005487
      9.56536      2.39723      0.08200        -0.003337     -0.003686      0.010562
      5.16233     -3.63939      6.35382         0.004998     -0.008310     -0.010386
      3.47338     -2.41370      8.46435        -0.006196      0.012285      0.000823
      6.94024     -1.22853      6.36681         0.002966      0.010831      0.017475
      6.25250     -2.56776      8.70554        -0.007963     -0.013189      0.000617
      5.21253      0.06508      8.50514        -0.037758     -0.008802     -0.011298
    total drift:                                0.003646     -0.002123      0.011455

  FREE ENERGIE OF THE ION-ELECTRON SYSTEM (eV)
  free  energy   TOTEN  =     -1101.04775511 eV

  energy  without entropy=    -1101.02741696  energy(sigma->0) =    -1101.04097572

 total charge

# of ion       s       p       d       tot
    1        0.346   6.227   3.021   9.595
    2        0.376   6.226   3.147   9.749
    3        0.343   6.206   3.018   9.567
    4        0.360   6.244   3.066   9.670
    5        0.359   6.249   3.047   9.654
    6        0.363   6.243   3.092   9.698
    7        0.357   6.240   3.047   9.644
    8        0.359   6.234   3.083   9.675
    9        0.360   6.251   3.068   9.679
   10        0.360   6.243   3.064   9.666
   11        0.354   6.236   3.051   9.641
   12        0.358   6.230   3.067   9.656
   13        0.345   6.220   3.015   9.580
   14        0.361   6.232   3.113   9.707
   15        0.360   6.234   3.095   9.688
   16        0.358   6.237   3.069   9.664
   17        0.363   6.231   3.068   9.662
   18        0.389   6.218   3.229   9.835
   19        0.378   6.232   3.162   9.772
   20        0.360   6.238   3.100   9.698
   21        0.350   6.222   3.020   9.591
   22        0.364   6.232   3.104   9.699
   23        0.386   6.220   3.217   9.823
   24        0.363   6.185   3.246   9.795
   25        0.355   6.216   3.053   9.624
   26        0.358   6.237   3.072   9.667
   27        0.362   6.247   3.085   9.694
   28        0.364   6.238   3.123   9.724
   29        0.345   6.210   3.023   9.578
   30        0.368   6.234   3.095   9.697
   31        0.361   6.244   3.080   9.685
   32        0.361   6.249   3.058   9.668
   33        0.364   6.252   3.083   9.699
   34        0.360   6.242   3.069   9.671
   35        0.361   6.236   3.092   9.689
   36        0.358   6.242   3.070   9.670
   37        0.356   6.241   3.061   9.658
   38        0.361   6.240   3.087   9.688
   39        0.357   6.241   3.048   9.646
   40        0.359   6.241   3.078   9.677
   41        0.361   6.236   3.093   9.691
   42        0.344   6.220   3.017   9.581
   43        0.372   6.224   3.138   9.734
   44        0.343   6.204   3.036   9.583
   45        0.358   6.244   3.043   9.645
   46        0.358   6.240   3.064   9.662
   47        0.359   6.237   3.083   9.679
   48        0.361   6.233   3.093   9.686
   49        0.347   6.202   3.047   9.596
   50        0.366   6.215   3.117   9.698
   51        0.355   6.233   3.065   9.653
   52        0.360   6.242   3.070   9.672
   53        0.363   6.248   3.068   9.679
   54        0.380   6.242   3.143   9.765
   55        0.351   6.208   3.039   9.597
   56        0.358   6.235   3.072   9.665
   57        0.360   6.240   3.067   9.666
   58        0.362   6.243   3.084   9.689
   59        0.360   6.236   3.096   9.693
   60        0.356   6.241   3.043   9.640
[...]
  110        0.346   6.224   3.012   9.582
  111        0.362   6.231   3.116   9.709
  112        0.357   6.231   3.091   9.679
  113        0.359   6.236   3.095   9.691
  114        0.369   6.245   3.088   9.702
  115        0.418   6.342   4.147  10.907
  116        0.425   6.319   4.248  10.992
  117        0.425   6.318   4.243  10.986
  118        0.429   6.319   4.266  11.014
  119        0.426   6.320   4.247  10.993
  120        0.359   6.276   2.127   8.763
  121        0.357   6.273   2.124   8.754
  122        0.357   6.280   2.113   8.751
  123        0.370   6.299   2.155   8.824
  124        0.355   6.280   2.092   8.727
tot         44.839 773.701 382.4601201.000