 vasp.6.4.2 20Jul23 (build Sep 20 2024 16:56:05) complex
 executed on              LinuxNV date 2025.04.25  14:25:04
 OpenACC runtime initialized ...    4 GPUs detected

 INCAR:
   ENCUT = 520.000000
   POTIM = 0.200000
   SIGMA = 0.200000
   EDIFF = 1.00e-06
   EDIFFG = -1.00e-02
   ALGO = Normal
   GGA = PE
   PREC = Accurate
   IBRION = 2
   ISIF = 2
   ISMEAR = 1
   LORBIT = 11
   NELM = 100
   NSW = -1
   LCHARG = .TRUE.
   LWAVE = .FALSE.
   LREAL = .FALSE.

 POTCAR:    PAW_PBE Cr_pv 02Aug2007
 POTCAR:    PAW_PBE Ti_pv 07Sep2000
 POTCAR:    PAW_PBE V_pv 07Sep2000
 POTCAR:    PAW_PBE W_sv 04Sep2015
 POTCAR:    PAW_PBE Zr_sv 04Jan2005
 POTCAR:    PAW_PBE Cr_pv 02Aug2007
   VRHFIN =Cr : p6d5s1

   TITEL  = PAW_PBE Cr_pv 02Aug2007
   POMASS =   51.996; ZVAL   =   12.000    mass and valenz
   ENMAX  =  265.681; ENMIN  =  199.261 eV

   TITEL  = PAW_PBE Ti_pv 07Sep2000
   POMASS =   47.880; ZVAL   =   10.000    mass and valenz
   ENMAX  =  222.335; ENMIN  =  166.751 eV

   TITEL  = PAW_PBE V_pv 07Sep2000
   POMASS =   50.941; ZVAL   =   11.000    mass and valenz
   ENMAX  =  263.673; ENMIN  =  197.755 eV

   TITEL  = PAW_PBE W_sv 04Sep2015
   POMASS =  183.850; ZVAL   =   14.000    mass and valenz
   ENMAX  =  223.057; ENMIN  =  167.293 eV

   TITEL  = PAW_PBE Zr_sv 04Jan2005
   POMASS =   91.224; ZVAL   =   12.000    mass and valenz
   ENMAX  =  229.898; ENMIN  =  172.424 eV

  PAW_PBE Cr_pv 02Aug2007               :
  PAW_PBE Ti_pv 07Sep2000               :
  PAW_PBE V_pv 07Sep2000                :
  PAW_PBE W_sv 04Sep2015                :
  PAW_PBE Zr_sv 04Jan2005               :

 POSCAR: Cr Ti V  W  Zr
  positions in cartesian coordinates
 exchange correlation table for  LEXCH =        8
   RHO(1)=    0.500       N(1)  =     2000
   RHO(2)=  100.500       N(2)  =     4000

 ion  position               nearest neighbor table
   1  0.996  0.998  0.195- 118 2.49  22 2.52 103 2.53  17 2.54  35 2.55  40 2.56  18 2.61  45 2.63
                            23 2.94  41 3.00  34 3.00 119 3.02  44 3.03
   2  0.392  0.196  0.195-  39 2.51  66 2.56  63 2.57  44 2.57  71 2.59  67 2.59  14 2.64   3 2.65
                            62 2.97  43 2.98  40 3.02  12 3.04  13 3.07
   3  0.594  0.195  0.193-  62 2.50 111 2.54  87 2.54  84 2.57  13 2.60   2 2.65 107 2.69  12 2.69
                            83 2.94  63 3.01  66 3.02  14 3.13 124 3.17
   4  0.800  0.401  0.802- 109 2.48  88 2.49 112 2.51  31 2.53 108 2.60 117 2.61  92 2.62  30 2.63
                            33 2.99  16 3.01 113 3.02  91 3.02  89 3.04
   5  0.999  0.600  0.197-  31 2.63  32 2.64 114 2.67 109 2.68  59 2.68  54 2.68  35 2.69  27 2.71
                            58 2.95 110 2.97  36 2.98  55 2.98 113 3.01  26 3.03
   6  0.992  0.596  0.597- 116 2.65  32 2.66  29 2.68  33 2.69  37 2.69 111 2.71  61 2.73   8 2.82
                           115 2.96 112 3.00
   7  0.200  0.002  0.600-  46 2.64  60 2.64  19 2.67  41 2.67  69 2.67  64 2.67  36 2.69  42 2.70
                            37 2.98  68 2.98  59 2.98  47 3.01  65 3.04
   8  0.210  0.601  0.602-  82 2.66  60 2.67  51 2.67  55 2.69  28 2.69  56 2.71  10 2.80   6 2.82
                            50 2.96  81 2.99  78 3.02  29 3.04
   9  0.400  0.001  0.399-  41 2.66  58 2.67  80 2.67  64 2.69  63 2.71  67 2.73  85 2.75  88 2.75
                            12 2.88  79 3.00  59 3.00  68 3.04  86 3.04
  10  0.448  0.644  0.643-  96 2.54  81 2.64  78 2.66  97 2.73 101 2.74  82 2.78   8 2.80  73 2.81
                            77 2.84
  11  0.395  0.795  0.995-  56 2.60  82 2.63  84 2.65  75 2.68  79 2.70  62 2.70  57 2.71  98 2.73
                            78 2.96  61 2.98  63 3.02  53 3.03  99 3.03  83 3.03
  12  0.588  0.191  0.395-  63 2.62  67 2.67   3 2.69  14 2.70  85 2.75  88 2.75 124 2.81 112 2.82
                             9 2.88  84 3.02   2 3.04  16 3.17
  13  0.599  0.397  0.195-   3 2.60  66 2.63  90 2.65  94 2.69 110 2.70  71 2.70  14 2.70 115 2.71
                           111 2.80  87 2.93 114 3.00  70 3.00   2 3.07
  14  0.591  0.400  0.399-  72 2.62   2 2.64  95 2.68  91 2.69 111 2.69  12 2.70  13 2.70 116 2.73
                            96 2.87  67 2.95  71 2.96   3 3.13
  15  0.801  0.195  0.996- 107 2.58 108 2.58  21 2.66  27 2.68 123 2.70 109 2.73  87 2.73 102 2.74
                           110 2.99 106 3.00  26 3.02  22 3.03  89 3.03  83 3.05
  16  0.800  0.196  0.608- 108 2.51 105 2.63  30 2.66  88 2.67 112 2.76  24 2.76  85 2.76 124 2.77
                            86 2.92  25 2.97   4 3.01  12 3.17
  17  0.994  0.997  1.000-   1 2.54  21 2.57  34 2.58 102 2.61  20 2.62  39 2.63 122 2.64  44 2.64

  18  0.998  0.998  0.394- 104 2.54  23 2.56  41 2.58 119 2.59   1 2.61  36 2.65  46 2.69  19 2.70

[...]

  22  0.999  0.192  0.195-   1 2.52  23 2.57  44 2.58  27 2.61  21 2.62 107 2.63  50 2.71 102 2.81
                            15 3.03
  23  0.013  0.201  0.398-  45 2.43  18 2.56  22 2.57  51 2.59  28 2.65 103 2.71 124 2.72  24 2.73
                             1 2.94
  24  0.009  0.197  0.603-  19 2.51  46 2.53  52 2.59  25 2.62  29 2.66 104 2.69  23 2.73  16 2.76
                            47 2.92 124 3.08
  25  0.002  0.200  0.802-  21 2.59  48 2.60  47 2.60  20 2.62  24 2.62  30 2.62 108 2.66 105 2.67
                            16 2.97
  26  0.002  0.398  0.001-  30 2.54 108 2.60  48 2.60  54 2.61  27 2.62  21 2.64  31 2.65 109 2.68
                            15 3.02   5 3.03
  27  0.008  0.397  0.202-  28 2.52  55 2.53  49 2.54  22 2.61  26 2.62 110 2.64  15 2.68   5 2.71

  28  0.003  0.398  0.393-  27 2.52  50 2.57  32 2.61 107 2.64  23 2.65   8 2.69 111 2.78  29 2.88
                           124 2.95
  29  0.021  0.410  0.622-  56 2.33  30 2.58  51 2.59  24 2.66   6 2.68 124 2.69  52 2.86 112 2.87
                            28 2.88   8 3.04
  30  0.003  0.403  0.809-  26 2.54  53 2.55  29 2.58  25 2.62   4 2.63  33 2.63  16 2.66  52 2.66
                            31 2.91
  31  0.995  0.596  0.993-  33 2.50   4 2.53  58 2.62 113 2.63  53 2.63   5 2.63  34 2.64  26 2.65
                            30 2.91
  32  0.001  0.599  0.399-  36 2.60  55 2.60  28 2.61 115 2.62 110 2.62  60 2.62   5 2.64   6 2.66

  33  0.999  0.603  0.807-  31 2.50  57 2.55 112 2.56 117 2.60  56 2.61  30 2.63  38 2.63   6 2.69
                             4 2.99
  34  0.999  0.801  0.999- 118 2.53  57 2.53  40 2.57  38 2.58  17 2.58 117 2.60  35 2.61  31 2.64
                             1 3.00
  35  0.000  0.807  0.200-  41 2.53   1 2.55  58 2.60  34 2.61  36 2.61 119 2.61 113 2.64   5 2.69
                           118 2.86  40 2.92
  36  0.997  0.795  0.393- 114 2.59 120 2.59  59 2.60  32 2.60  35 2.61  18 2.65  37 2.67   7 2.69
                             5 2.98
  37  0.004  0.807  0.603-  19 2.57  42 2.57  60 2.57 115 2.62 121 2.63  38 2.66  36 2.67   6 2.69
                             7 2.98
  38  0.999  0.803  0.803- 116 2.56  20 2.57  34 2.58  39 2.62  33 2.63  61 2.65  37 2.66 122 2.72

  39  0.198  0.004  0.004-   2 2.51  43 2.58  40 2.58  42 2.61  38 2.62  57 2.62  17 2.63  62 2.67
                            63 2.89
  40  0.192  0.999  0.198-   1 2.56  41 2.56  34 2.57  39 2.58  44 2.60  67 2.61  63 2.64  58 2.66
                            35 2.92   2 3.02
  41  0.195  1.000  0.394-  35 2.53  40 2.56  18 2.58  45 2.59  59 2.59  68 2.65   9 2.66   7 2.67
                             1 3.00
  42  0.199  0.001  0.805-  66 2.53  37 2.57  61 2.57  39 2.61  20 2.61  47 2.61  65 2.63   7 2.70

  43  0.196  0.199  1.000-  21 2.50  66 2.56  48 2.57  39 2.58  44 2.59  20 2.60  71 2.61  47 2.63
                             2 2.98
  44  0.199  0.200  0.199-   2 2.57  49 2.58  22 2.58  43 2.59  40 2.60  45 2.61  72 2.63  17 2.64
                            67 2.90   1 3.03
  45  0.198  0.199  0.397-  23 2.43  67 2.52  41 2.59  44 2.61  50 2.61   1 2.63  46 2.63  73 2.72

[...]

  47  0.199  0.199  0.800-  52 2.56  25 2.60  70 2.61  42 2.61  19 2.63  43 2.63  69 2.63  46 2.66
                            24 2.92   7 3.01
  48  0.201  0.398  0.002-  43 2.57  76 2.59  52 2.60  25 2.60  70 2.60  26 2.60  49 2.61  53 2.63

[...]

  61  0.203  0.805  0.804-  42 2.57  62 2.59  60 2.60  57 2.64  38 2.65  56 2.70  82 2.72   6 2.73
                            11 2.98
  62  0.401  0.005  0.001-   3 2.50  63 2.54  66 2.56  61 2.59  65 2.59  83 2.61  39 2.67  11 2.70
                             2 2.97
  63  0.389  0.996  0.187-  57 2.52  62 2.54   2 2.57  12 2.62  40 2.64  79 2.69  84 2.69   9 2.71
                            39 2.89   3 3.01  11 3.02
  64  0.408  0.007  0.608-  89 2.51  81 2.54  68 2.59  65 2.61  86 2.62  59 2.66   7 2.67   9 2.69
                           123 3.01
  65  0.398  0.001  0.801-  82 2.59  62 2.59  87 2.60  60 2.60  64 2.61  69 2.63  42 2.63 123 2.70
                             7 3.04
  66  0.390  0.197  0.999-  42 2.53  43 2.56   2 2.56  62 2.56  70 2.59  69 2.63  13 2.63  87 2.68
                             3 3.02
  67  0.390  0.205  0.394-  45 2.52  72 2.57   2 2.59  40 2.61  12 2.67  91 2.68  68 2.69   9 2.73
                            44 2.90  14 2.95
  68  0.398  0.199  0.600-  46 2.59  88 2.59  64 2.59  73 2.63  92 2.64  41 2.65  69 2.66  67 2.69
                             7 2.98   9 3.04
  69  0.404  0.205  0.806-  90 2.52  74 2.57  89 2.60  65 2.63  47 2.63  66 2.63  68 2.66   7 2.67

[...]

  81  0.392  0.802  0.590-  80 2.54  64 2.54 123 2.57  55 2.59  60 2.61  10 2.64  82 2.71 101 2.74
                            59 2.90   8 2.99
  82  0.411  0.809  0.805-  83 2.52  65 2.59  11 2.63   8 2.66  81 2.71  61 2.72  78 2.76  10 2.78
                           123 2.80  98 2.90
  83  0.599  0.001  0.004-  84 2.52  82 2.52 107 2.53  62 2.61  87 2.62  98 2.62 102 2.64 123 2.68
                             3 2.94  11 3.03  15 3.05
  84  0.598  0.001  0.195-  83 2.52   3 2.57  85 2.63  99 2.63  11 2.65  63 2.69 103 2.71 124 2.79
                            12 3.02
  85  0.599  0.982  0.389- 100 2.46  79 2.51 104 2.61  84 2.63  86 2.67   9 2.75  12 2.75  16 2.76
                            99 2.84 124 3.23
  86  0.601  0.999  0.598- 101 2.60  64 2.62  80 2.63 108 2.64 105 2.64 123 2.66  85 2.67  88 2.68
                            16 2.92   9 3.04
  87  0.596  0.199  0.001-   3 2.54  65 2.60  83 2.62 110 2.62  89 2.63  90 2.66  66 2.68  15 2.73
                            13 2.93 123 3.20
  88  0.604  0.211  0.616-   4 2.49  89 2.52  91 2.56  68 2.59  16 2.67  86 2.68   9 2.75  12 2.75
                            92 2.87
  89  0.599  0.200  0.802-  64 2.51  88 2.52 109 2.53  69 2.60  87 2.63 108 2.64  92 2.64 123 2.77
                            15 3.03   4 3.04
  90  0.599  0.402  0.995-  69 2.52  92 2.54 114 2.59  93 2.59 109 2.60  70 2.64  13 2.65  87 2.66

  91  0.596  0.401  0.606-  73 2.53  92 2.54  88 2.56  96 2.57 112 2.60 117 2.61  67 2.68  14 2.69
                             4 3.02
  92  0.600  0.402  0.802-  90 2.54  91 2.54  74 2.59 113 2.59   4 2.62  68 2.64  89 2.64  97 2.65
                            88 2.87 109 2.90
  93  0.601  0.602  0.000- 119 2.58  94 2.58  97 2.58  90 2.59  74 2.60  75 2.60  98 2.61 113 2.61

[...]

[...]
   0.104E+02 0.937E+02 0.581E+00   -.105E+02 -.940E+02 -.890E+00   0.780E-01 0.257E+00 0.309E+00   -.318E-02 -.168E-02 0.463E-04
   -.527E+02 -.725E+01 0.521E+02   0.530E+02 0.760E+01 -.526E+02   -.311E+00 -.347E+00 0.468E+00   -.275E-02 -.990E-03 0.981E-03
   -.561E+02 0.548E+02 0.372E+02   0.559E+02 -.549E+02 -.373E+02   0.242E+00 0.635E-01 0.119E+00   -.415E-02 0.294E-02 -.155E-02
   -.151E+03 -.466E+02 0.548E+02   0.152E+03 0.464E+02 -.551E+02   -.378E+00 0.215E+00 0.288E+00   -.254E-02 0.360E-02 -.280E-02
   0.478E+02 0.199E+03 0.266E+01   -.483E+02 -.199E+03 -.330E+01   0.500E+00 -.395E+00 0.648E+00   -.177E-03 0.112E-02 -.330E-02
   0.921E+02 0.834E+02 -.151E+02   -.917E+02 -.833E+02 0.152E+02   -.370E+00 -.100E+00 -.116E+00   -.206E-02 -.242E-02 0.192E-03
   -.334E+02 -.737E+02 0.463E+01   0.333E+02 0.736E+02 -.462E+01   0.122E+00 0.807E-01 -.102E-01   -.664E-03 -.314E-02 0.227E-02
   -.177E+02 -.805E+02 0.401E+02   0.178E+02 0.806E+02 -.403E+02   -.203E-01 -.741E-01 0.156E+00   0.350E-02 0.294E-03 -.535E-03
   0.126E+03 0.629E+02 -.900E+02   -.126E+03 -.631E+02 0.904E+02   0.639E-01 0.215E+00 -.377E+00   -.576E-03 0.347E-03 -.124E-02
   0.552E+02 0.435E+01 0.532E+01   -.556E+02 -.387E+01 -.553E+01   0.380E+00 -.476E+00 0.209E+00   0.213E-02 -.168E-02 0.666E-03
   0.463E+02 -.101E+03 0.739E+02   -.461E+02 0.101E+03 -.738E+02   -.115E+00 0.612E+00 -.637E-01   0.185E-02 -.437E-02 0.170E-02
   0.321E+01 -.870E+02 0.110E+02   -.329E+01 0.870E+02 -.112E+02   0.710E-01 0.281E-01 0.212E+00   0.516E-02 -.347E-02 -.524E-03
   0.962E+02 -.422E+02 0.318E+02   -.961E+02 0.419E+02 -.319E+02   -.951E-01 0.320E+00 0.148E+00   0.246E-02 -.253E-02 0.773E-03
   0.106E+03 0.194E+02 -.129E+01   -.106E+03 -.193E+02 0.141E+01   0.162E+00 -.783E-01 -.125E+00   0.274E-02 -.133E-03 -.328E-03
   0.821E+02 -.327E+01 0.177E+02   -.822E+02 0.334E+01 -.177E+02   0.174E+00 -.696E-01 0.439E-02   0.177E-02 -.195E-03 -.125E-02
   0.274E+02 -.125E+03 -.272E+02   -.275E+02 0.125E+03 0.268E+02   0.109E+00 -.181E+00 0.374E+00   0.921E-03 -.158E-02 0.905E-03
   -.692E+01 -.140E+03 -.829E+01   0.724E+01 0.141E+03 0.852E+01   -.324E+00 -.163E+00 -.240E+00   0.190E-02 -.245E-02 0.252E-02
   0.999E+02 0.291E+02 -.146E+02   -.998E+02 -.289E+02 0.144E+02   -.329E-01 -.112E+00 0.164E+00   0.133E-02 -.155E-02 -.101E-02
   0.110E+02 0.162E+02 -.231E+02   -.113E+02 -.163E+02 0.235E+02   0.317E+00 0.805E-01 -.331E+00   -.505E-03 0.398E-03 -.151E-02
   -.567E+02 -.159E+02 -.128E+02   0.562E+02 0.161E+02 0.132E+02   0.480E+00 -.277E+00 -.364E+00   -.330E-04 0.645E-03 -.160E-02
   -.640E+02 -.605E+02 -.459E+02   0.638E+02 0.608E+02 0.463E+02   0.138E+00 -.326E+00 -.388E+00   -.265E-03 -.695E-03 0.550E-03
   0.377E+02 -.189E+02 0.271E+02   -.380E+02 0.189E+02 -.271E+02   0.376E+00 -.439E-01 -.595E-02   0.549E-03 -.157E-02 -.237E-03
   0.638E+02 0.204E+02 -.758E+01   -.641E+02 -.202E+02 0.752E+01   0.285E+00 -.204E+00 0.654E-01   -.270E-03 -.222E-02 -.102E-02
   -.197E+02 0.249E+02 -.201E+02   0.200E+02 -.250E+02 0.201E+02   -.224E+00 0.114E+00 -.472E-01   -.172E-02 0.433E-03 0.733E-03
   -.764E+02 -.768E+01 0.266E+01   0.765E+02 0.771E+01 -.242E+01   -.107E+00 -.375E-01 -.237E+00   -.193E-02 0.334E-02 -.836E-03
   -.179E+03 -.551E+02 -.484E+02   0.180E+03 0.545E+02 0.477E+02   -.209E+00 0.538E+00 0.652E+00   -.312E-02 0.317E-02 -.889E-03
   -.764E+02 0.118E+03 -.110E+03   0.765E+02 -.118E+03 0.110E+03   -.613E-01 -.103E-01 0.510E+00   -.203E-02 0.136E-02 -.140E-02
   -.108E+02 0.697E+02 -.348E+02   0.109E+02 -.701E+02 0.350E+02   -.758E-01 0.431E+00 -.254E+00   -.137E-02 -.925E-03 -.338E-03
   -.139E+01 0.174E+02 -.804E+02   0.132E+01 -.176E+02 0.809E+02   0.653E-01 0.154E+00 -.497E+00   -.822E-03 -.728E-03 0.246E-02
   -.741E+02 0.154E+02 0.216E+02   0.738E+02 -.152E+02 -.214E+02   0.328E+00 -.134E+00 -.180E+00   -.183E-02 0.149E-02 0.341E-02
   -.938E+02 -.875E+02 0.505E+02   0.939E+02 0.869E+02 -.503E+02   -.978E-01 0.525E+00 -.274E+00   -.165E-02 0.386E-02 0.156E-02
   0.565E+01 0.615E+02 -.140E+03   -.459E+01 -.608E+02 0.140E+03   -.106E+01 -.710E+00 -.249E+00   0.887E-03 0.145E-02 0.386E-03
   0.979E+02 -.574E+02 -.540E+02   -.983E+02 0.572E+02 0.538E+02   0.357E+00 0.127E+00 0.184E+00   0.360E-03 0.355E-03 0.775E-03
   -.166E+02 -.845E+02 -.144E+02   0.163E+02 0.842E+02 0.141E+02   0.236E+00 0.269E+00 0.230E+00   -.343E-03 -.162E-02 0.374E-02
   -.606E+01 -.409E+02 0.186E+02   0.630E+01 0.415E+02 -.184E+02   -.240E+00 -.607E+00 -.169E+00   0.139E-02 0.418E-03 0.262E-02
   0.691E+02 -.324E+02 0.598E+02   -.694E+02 0.322E+02 -.598E+02   0.237E+00 0.208E+00 0.617E-01   0.271E-02 0.223E-02 0.125E-03
[...]
   -.842E+02 -.150E+03 0.610E+02   0.845E+02 0.149E+03 -.604E+02   -.291E+00 0.773E+00 -.560E+00   0.349E-02 -.250E-03 -.749E-02
   0.239E+03 0.101E+03 -.660E+02   -.239E+03 -.101E+03 0.661E+02   0.149E+00 0.957E-01 -.149E+00   -.264E-02 -.184E-02 -.373E-02
   -.134E+02 -.388E+02 0.164E+02   0.136E+02 0.393E+02 -.166E+02   -.228E+00 -.516E+00 0.165E+00   0.117E-02 -.292E-02 0.215E-02
   0.243E+02 -.936E+02 0.405E+02   -.241E+02 0.935E+02 -.409E+02   -.270E+00 0.162E+00 0.391E+00   0.446E-02 -.373E-02 0.805E-03
   0.304E+02 -.631E+02 0.771E+02   -.298E+02 0.634E+02 -.770E+02   -.569E+00 -.305E+00 -.949E-01   0.452E-02 -.300E-02 -.138E-02
   0.168E+03 0.300E+01 -.106E+02   -.169E+03 -.268E+01 0.108E+02   0.437E+00 -.316E+00 -.246E+00   -.128E-02 -.201E-02 -.277E-02
   0.228E+02 0.749E+02 -.262E+02   -.229E+02 -.746E+02 0.262E+02   0.139E+00 -.228E+00 -.428E-01   0.143E-02 -.626E-03 -.555E-03
   0.126E+02 0.156E+03 0.478E+02   -.125E+02 -.156E+03 -.478E+02   -.972E-01 0.287E-01 -.440E-01   0.490E-02 -.609E-02 0.386E-02
   -.314E+02 0.128E+02 0.405E+02   0.315E+02 -.123E+02 -.409E+02   -.100E+00 -.478E+00 0.437E+00   0.366E-02 -.215E-02 0.165E-02
   0.994E+00 -.331E+02 0.222E+02   -.774E+00 0.333E+02 -.225E+02   -.223E+00 -.277E+00 0.337E+00   0.300E-02 -.172E-02 0.111E-02
   0.433E+02 -.421E+01 0.348E+02   -.435E+02 0.433E+01 -.346E+02   0.219E+00 -.123E+00 -.186E+00   0.208E-02 -.290E-02 0.505E-03
   -.646E+02 0.126E+03 0.106E+03   0.638E+02 -.125E+03 -.105E+03   0.789E+00 -.102E+01 -.789E+00   0.699E-02 -.127E-02 -.538E-03
   0.816E+02 -.125E+03 0.105E+03   -.810E+02 0.124E+03 -.104E+03   -.563E+00 0.852E+00 -.589E+00   -.338E-02 0.784E-02 -.340E-02
   -.108E+03 0.229E+01 0.471E+02   0.107E+03 -.238E+01 -.471E+02   0.801E+00 0.889E-01 -.575E-03   -.476E-03 0.112E-02 -.590E-02
   -.404E+00 -.925E+00 0.524E-01   -.639E-12 0.163E-11 -.711E-12   0.402E+00 0.937E+00 -.538E-01   -.304E-02 -.544E-02 0.653E-03

 POSITION                                       TOTAL-FORCE (eV/Angst)
      1.43924      1.44848     13.58396         0.000152     -0.000199     -0.000105
     -0.02317      2.95768      2.97210         0.000513     -0.000201     -0.000153
     -1.57216      4.47498      4.50294        -0.000320     -0.000203      0.000132
      3.02435      9.08282      2.99519         0.000146     -0.000501      0.000191
     -1.57316      4.50584     10.58864         0.000517      0.000373      0.000476
      1.48334      7.51753      7.47077        -0.000147      0.000439      0.000124
      3.04574      6.03250     -3.01530        -0.000060      0.000014     -0.000115
      7.49152      1.58978      1.55672        -0.000515     -0.000011      0.000274
     -0.00527      6.03537      0.01392         0.000269     -0.000114     -0.000022
      6.32561      3.38338      3.36151        -0.000711      0.000806     -0.000172
     10.53301      4.49558      1.43382        -0.000015      0.000117      0.000413
     -0.03709      5.99808      2.89586        -0.000058     -0.000222      0.000362
     -0.07691      3.00294      6.04269        -0.000181      0.000094      0.000215
      1.55336      4.46449      4.45497        -0.000133     -0.000575     -0.000211
      2.94478     12.12029     -0.02172        -0.000613     -0.000566     -0.000519
      0.01834      9.17049      2.92313         0.000568     -0.000147      0.000318
      7.54073      7.53866      7.45361        -0.000409     -0.000440     -0.000050
      2.93421      2.97105     12.08867        -0.000385      0.000082     -0.000123
      4.52046      4.49978     10.51934         0.000200      0.000034     -0.000594
      6.02226      6.05355      8.99319        -0.000156      0.000006     -0.000006
      9.01529      6.10278     -6.06223         0.000444     -0.000259     -0.000012
     -4.65248      7.57924      7.53068        -0.000657     -0.000336     -0.000527
      4.42909      1.59285     -1.40834        -0.000277     -0.000518     -0.000138
      5.99123      3.13806     -3.02570         0.000126      0.000224      0.000261
      7.56503      4.56845     -4.55730         0.000196     -0.000042     -0.000337
      2.99211     -2.99229      3.00681         0.000085     -0.000488      0.000022
      4.46959     -1.42203      1.51859         0.000316     -0.000150     -0.000156
      5.95152     -0.02072      0.04422        -0.000233      0.000077     -0.000134
      7.64332      1.75269     -1.47063         0.000088      0.000181      0.000922
      9.14946      3.09154     -3.07527         0.000045     -0.000167      0.000160
      4.46536     10.53555      4.49153        -0.000179     -0.000341      0.000064
      7.52849     -1.51596      1.49715        -0.000536      0.000075      0.000361
      3.06718      9.10311      5.98977         0.000081      0.000131      0.000540
      6.01754      9.05485      6.02258        -0.000627      0.000421      0.000285
      7.59445     -4.60038      4.56269        -0.000210     -0.000345      0.000207
      1.40489      4.49781     10.54808         0.000212      0.000610      0.000049
     10.62731     -1.52891      1.53413         0.000298      0.000154      0.000329
      4.55016      7.55661      7.52208        -0.000380      0.000287      0.000163
     -1.44312      1.50311      1.49946        -0.000282      0.000139      0.000760
      7.57010     -4.62364      7.48256        -0.000011     -0.000319     -0.000295
      9.03934     -3.12409      6.01546         0.000147     -0.000127     -0.000454
      4.59486      7.58778     -4.59257         0.000189      0.000314     -0.000219
      7.58435      7.54182     -4.59542         0.000000      0.000294      0.000115
      1.50420      1.49037      1.51015         0.000280     -0.000267      0.000138
      3.00892      2.98541     -0.00986        -0.000911     -0.000290     -0.000152
      4.55990      4.52833     -1.46921         0.000435     -0.000435     -0.000156
      6.05241      6.05768     -3.05864        -0.000365      0.000187     -0.000011
      1.48888     -1.47916      4.50197         0.000087      0.000096     -0.000260
      3.00643      0.02211      3.00398        -0.000642     -0.000053     -0.000132
      4.53678      1.52961      1.53241        -0.000101     -0.000768     -0.000078
      5.99384      3.12976     -0.02910         0.000236      0.000658     -0.000328
      7.55770      4.60565     -1.57411        -0.000295     -0.000209      0.000374
      3.02987     -2.99531      5.99141        -0.000186      0.000064      0.000289
      4.47672     -1.48230      4.53325         0.000032      0.000090     -0.000394
      5.99363     -0.08618      3.03985         0.000040      0.000521      0.000294
      9.07417      3.01230     -0.12717        -0.000446      0.000185     -0.000314
      4.57806     -4.60159      7.48243         0.000049     -0.000257     -0.000155
      6.02437     -3.07675      5.96714        -0.000309      0.000088      0.000241
      7.60300     -1.54004      4.54614        -0.000122     -0.000201     -0.000035
      9.11001     -0.00851      2.95085        -0.000114      0.000702      0.000790
[...]
     -1.63933      4.54615      7.61506         0.000150     -0.000331     -0.000613
     -0.10530      5.80036      6.09670        -0.000500     -0.000359     -0.000227
      1.65917      7.59435      4.47794        -0.000044     -0.000102      0.000133
     -1.53552      1.49532     10.57717         0.000263      0.000008      0.000498
     -0.03350      2.96356      9.03882         0.000025     -0.000033     -0.000213
      1.50025      4.55864      7.59562        -0.000305      0.000167     -0.000868
      3.13613      6.05248      6.01385        -0.000326      0.000190      0.000354
      4.54155      7.56956      4.48842        -0.000470     -0.000285     -0.000208
     -0.05616      0.11556     12.10054        -0.000405      0.000611     -0.000488
      1.46761      1.48400     10.55987         0.000408      0.000146     -0.000057
      2.93721      3.02833      9.05847         0.000051      0.000442      0.000002
      4.51396      4.55101      7.52385         0.000454      0.000194     -0.000285
      6.07333      5.96464      5.92656        -0.000931     -0.000010      0.000645
      8.90938      3.05132      5.89463         0.000805      0.002321      0.001194
     -1.47472      7.63391      4.67539        -0.000538      0.000177     -0.000010
    total drift:                               -0.004269      0.006518     -0.000740

  FREE ENERGIE OF THE ION-ELECTRON SYSTEM (eV)
  free  energy   TOTEN  =     -1097.06737045 eV

  energy  without entropy=    -1097.01191508  energy(sigma->0) =    -1097.04888532

 reached required accuracy - stopping structural energy minimisation

 total charge

# of ion       s       p       d       tot
    1        0.422   6.325   4.217  10.965
    2        0.414   6.311   4.188  10.913
    3        0.412   6.305   4.195  10.912
    4        0.424   6.318   4.223  10.965
    5        0.363   6.295   2.117   8.776
    6        0.351   6.274   2.092   8.717
    7        0.361   6.291   2.125   8.777
    8        0.352   6.276   2.085   8.713
    9        0.356   6.282   2.098   8.737
   10        0.340   6.235   2.103   8.678
   11        0.359   6.292   2.114   8.765
   12        0.353   6.265   2.105   8.723
   13        0.364   6.296   2.118   8.778
   14        0.359   6.278   2.122   8.760
   15        0.359   6.299   2.137   8.795
   16        0.359   6.274   2.148   8.781
   17        0.355   6.244   3.038   9.637
   18        0.352   6.233   3.043   9.628
   19        0.356   6.228   3.074   9.658
   20        0.357   6.234   3.071   9.661
   21        0.358   6.232   3.079   9.668
   22        0.351   6.234   3.026   9.610
   23        0.355   6.220   3.099   9.674
   24        0.352   6.224   3.054   9.630
   25        0.353   6.238   3.035   9.627
   26        0.351   6.231   3.049   9.631
   27        0.358   6.225   3.088   9.671
   28        0.347   6.218   3.034   9.599
   29        0.355   6.206   3.124   9.685
   30        0.355   6.230   3.058   9.643
   31        0.357   6.235   3.063   9.654
   32        0.351   6.219   3.064   9.634
   33        0.357   6.231   3.083   9.670
   34        0.359   6.235   3.094   9.689
   35        0.357   6.238   3.060   9.655
   36        0.353   6.227   3.048   9.628
   37        0.352   6.227   3.054   9.634
   38        0.352   6.232   3.039   9.623
   39        0.358   6.245   3.044   9.647
   40        0.356   6.238   3.056   9.650
   41        0.356   6.225   3.086   9.666
   42        0.357   6.233   3.069   9.658
   43        0.360   6.237   3.093   9.690
   44        0.357   6.241   3.049   9.647
   45        0.358   6.236   3.081   9.675
   46        0.358   6.230   3.087   9.674
   47        0.354   6.236   3.044   9.635
   48        0.357   6.238   3.060   9.656
   49        0.359   6.237   3.072   9.668
   50        0.348   6.224   3.028   9.601
   51        0.357   6.221   3.103   9.682
   52        0.357   6.240   3.044   9.640
   53        0.352   6.231   3.053   9.636
   54        0.357   6.229   3.081   9.667
   55        0.356   6.224   3.075   9.655
   56        0.357   6.218   3.124   9.699
   57        0.355   6.228   3.078   9.661
   58        0.353   6.229   3.042   9.624
   59        0.349   6.227   3.034   9.610
   60        0.351   6.216   3.069   9.636
[...]
  110        0.351   6.220   3.061   9.631
  111        0.355   6.207   3.081   9.643
  112        0.340   6.214   3.003   9.557
  113        0.357   6.237   3.073   9.667
  114        0.353   6.226   3.059   9.638
  115        0.350   6.224   3.047   9.621
  116        0.356   6.219   3.107   9.682
  117        0.356   6.241   3.049   9.646
  118        0.375   6.250   3.097   9.722
  119        0.358   6.235   3.075   9.668
  120        0.356   6.233   3.068   9.656
  121        0.357   6.236   3.067   9.660
  122        0.346   6.219   3.007   9.573
  123        2.436   6.243   3.380  12.059
  124        2.258   5.964   1.899  10.121
tot         48.248 773.094 372.0631193.405