 vasp.6.4.2 20Jul23 (build Sep 20 2024 16:56:05) complex
 executed on              LinuxNV date 2025.02.03  18:01:18
 OpenACC runtime initialized ...    4 GPUs detected

 INCAR:
   PREC = Accurate
   ENCUT = 520
   EDIFF = 1e-06
   ISMEAR = 1
   SIGMA = 0.2
   NSW = 0
   IBRION = -1
   LWAVE = .FALSE.
   LCHARG = .TRUE.
   LREAL = .FALSE.
   ALGO = Normal

 POTCAR:    PAW_PBE Cr_pv 02Aug2007
 POTCAR:    PAW_PBE Ti_pv 07Sep2000
 POTCAR:    PAW_PBE V_pv 07Sep2000
 POTCAR:    PAW_PBE W_sv 04Sep2015
 POTCAR:    PAW_PBE Zr_sv 04Jan2005
 POTCAR:    PAW_PBE Cr_pv 02Aug2007
   VRHFIN =Cr : p6d5s1

   TITEL  = PAW_PBE Cr_pv 02Aug2007
   POMASS =   51.996; ZVAL   =   12.000    mass and valenz
   ENMAX  =  265.681; ENMIN  =  199.261 eV

   TITEL  = PAW_PBE Ti_pv 07Sep2000
   POMASS =   47.880; ZVAL   =   10.000    mass and valenz
   ENMAX  =  222.335; ENMIN  =  166.751 eV

   TITEL  = PAW_PBE V_pv 07Sep2000
   POMASS =   50.941; ZVAL   =   11.000    mass and valenz
   ENMAX  =  263.673; ENMIN  =  197.755 eV

   TITEL  = PAW_PBE W_sv 04Sep2015
   POMASS =  183.850; ZVAL   =   14.000    mass and valenz
   ENMAX  =  223.057; ENMIN  =  167.293 eV

   TITEL  = PAW_PBE Zr_sv 04Jan2005
   POMASS =   91.224; ZVAL   =   12.000    mass and valenz
   ENMAX  =  229.898; ENMIN  =  172.424 eV

  PAW_PBE Cr_pv 02Aug2007               :
  PAW_PBE Ti_pv 07Sep2000               :
  PAW_PBE V_pv 07Sep2000                :
  PAW_PBE W_sv 04Sep2015                :
  PAW_PBE Zr_sv 04Jan2005               :

 POSCAR: Cr Ti V  W  Zr
  positions in cartesian coordinates
 exchange correlation table for  LEXCH =        8
   RHO(1)=    0.500       N(1)  =     2000
   RHO(2)=  100.500       N(2)  =     4000

 ion  position               nearest neighbor table
   1  0.999  0.247  0.749-  30 2.53 105 2.53  24 2.54  22 2.54 100 2.56 107 2.56 101 2.61 119 2.63
                            23 3.00 106 3.01  29 3.02  25 3.02  37 3.03
   2  0.126  0.876  0.875-  44 2.53  18 2.54 120 2.56  69 2.60  49 2.60  23 2.63  63 2.64  39 2.66
                            40 2.85  43 2.96   8 3.01  24 3.04
   3  0.626  0.128  0.872- 102 2.51  75 2.51 106 2.52   5 2.56  76 2.57  70 2.60  97 2.61  81 2.87
                            96 2.93  82 2.96 101 3.00   9 3.00  71 3.03
   4  0.874  0.127  0.375- 104 2.38  20 2.55  99 2.55  29 2.59  27 2.60  13 2.65  98 2.66   7 2.66
                           116 2.89  14 3.04  21 3.05  12 3.14
   5  0.749  0.003  0.754- 117 2.49  96 2.52  94 2.52 101 2.54   3 2.56 100 2.59 118 2.62   9 2.70
                            97 2.94 106 2.97  75 3.01  17 3.06
   6  0.750  0.502  0.495- 110 2.40  10 2.50  87 2.55  79 2.55  14 2.57  85 2.58  16 2.62 105 2.81
                            86 3.04 109 3.05 127 3.11
   7  0.999  0.999  0.500- 117 2.62 116 2.65   4 2.66  41 2.66  21 2.66  22 2.69 100 2.70  43 2.73
                            29 2.95  20 3.00  99 3.01  23 3.05
   8  0.375  0.881  0.873-  44 2.63  75 2.63  69 2.63  49 2.64  70 2.66  95 2.70  63 2.71  11 2.74
                            68 2.97  50 3.00   2 3.01  64 3.03  96 3.04
   9  0.622  0.131  0.624-  75 2.60 104 2.65 106 2.66  99 2.67  74 2.68   5 2.70  81 2.71  80 2.75
                            94 2.90  73 3.00  10 3.00   3 3.00 100 3.03  48 3.04
  10  0.642  0.377  0.618-   6 2.50 111 2.65 106 2.68 104 2.70  86 2.71  80 2.74  88 2.75  81 2.79
                            87 2.88 105 2.90  79 2.91   9 3.00  82 3.04
  11  0.506  0.750  0.001-  64 2.61  89 2.62  90 2.63  83 2.65  96 2.70  59 2.70  62 2.70   8 2.74
                           113 2.97  91 3.02 124 3.03
  12  0.873  0.122  0.117-  97 2.60  25 2.62  20 2.65  18 2.66  98 2.67 102 2.68  27 2.69  13 2.73
                           114 2.95  19 2.95 101 2.98 103 3.03   4 3.14
  13  0.744  0.249  0.250-  79 2.64   4 2.65  77 2.65  71 2.65  73 2.65 103 2.70  12 2.73  14 2.73
                            78 2.92 104 2.92  98 3.01
  14  0.876  0.377  0.380-   6 2.57 104 2.59  33 2.65  35 2.67  27 2.68  29 2.69 109 2.71  13 2.73
                           110 2.78 105 3.01   4 3.04  79 3.04
  15  0.751  0.496  0.000- 108 2.62 112 2.67  77 2.68 103 2.68 107 2.69  89 2.69  83 2.70  82 2.72
                           111 2.89 109 2.97  31 3.01 102 3.01 124 3.05
  16  0.882  0.609  0.629-  37 2.57   6 2.62  35 2.62 111 2.64  42 2.73 120 2.76 127 2.82  17 2.84
                           105 2.95 110 3.00  36 3.02 112 3.05
  17  0.748  0.752  0.756-  89 2.61  96 2.63 118 2.65 117 2.69 112 2.70  87 2.76  94 2.76  16 2.84
                            95 2.92 113 2.99   5 3.06 120 3.10 127 3.11
  18  0.001  0.995  0.992- 118 2.49   2 2.54  19 2.60  40 2.60  24 2.61 114 2.61 101 2.66  12 2.66

  19  0.116  0.128  0.115-  25 2.51  18 2.60  27 2.61  51 2.61  44 2.61  20 2.71 121 2.72 126 2.82
                            12 2.95
  20  0.993  0.004  0.254- 116 2.46   4 2.55  12 2.65 114 2.66  19 2.71  21 2.71  40 2.90   7 3.00
                           126 3.05 125 3.09
  21  0.125  0.133  0.380-  29 2.46  54 2.60  27 2.60 121 2.61   7 2.66  47 2.71  20 2.71 126 2.73
                            28 2.89   4 3.05
  22  0.125  0.128  0.631-   1 2.54  49 2.56  56 2.57  29 2.57  23 2.61  54 2.63  47 2.66   7 2.69
                            24 2.90
  23  0.000  0.001  0.751- 117 2.41  24 2.53 101 2.60  22 2.61 100 2.62   2 2.63 118 2.64  43 2.65
                             1 3.00 120 3.03   7 3.05
  24  0.118  0.126  0.870-  23 2.53   1 2.54  49 2.60  18 2.61  25 2.61  44 2.63  51 2.63  56 2.77
                            22 2.90 119 3.00   2 3.04
  25  0.999  0.251  0.997-  19 2.51 107 2.57 103 2.57 119 2.59  24 2.61  12 2.62  26 2.63 101 2.65
                             1 3.02
  26  0.124  0.374  0.125-  33 2.57  31 2.61  25 2.63  58 2.64 121 2.65  27 2.65  51 2.67 122 2.68
                           119 3.04
  27  0.999  0.247  0.250- 103 2.57  21 2.60   4 2.60  19 2.61  26 2.65  28 2.68  14 2.68  12 2.69
                           121 3.04
  28  0.128  0.371  0.380-  35 2.52  54 2.60  29 2.63 121 2.65 122 2.65  33 2.67  27 2.68  55 2.72
                            21 2.89
  29  0.003  0.242  0.501-  21 2.46  22 2.57   4 2.59  30 2.59 105 2.62  28 2.63 100 2.65  14 2.69
                             7 2.95   1 3.02
  30  0.118  0.369  0.629-  35 2.47   1 2.53  56 2.55  37 2.58  29 2.59  55 2.60  54 2.63  61 2.70
                           105 2.87 119 2.98
  31  0.999  0.499  0.004- 108 2.57 103 2.58 112 2.58  32 2.61  26 2.61  38 2.65 119 2.68 107 2.71
                            15 3.01
  32  0.131  0.619  0.124-  58 2.53  63 2.60  31 2.61 122 2.62  33 2.63  65 2.67  39 2.68 125 2.75

  33  0.003  0.496  0.249-  26 2.57 103 2.58 110 2.60  32 2.63  14 2.65 108 2.66  28 2.67  34 2.74
                           122 3.03 125 3.09
  34  0.137  0.613  0.389-  35 2.52  67 2.57 122 2.58  42 2.63  65 2.70  33 2.74  55 2.82 125 2.83

  35  0.015  0.492  0.505-  30 2.47  34 2.52  28 2.52  36 2.58  16 2.62 110 2.66  14 2.67 105 2.68

  36  0.131  0.618  0.632-  61 2.56  35 2.58  69 2.61  42 2.61  37 2.62  67 2.64 120 2.70  55 2.77
                           123 3.02  16 3.02
  37  0.005  0.496  0.757- 119 2.53  16 2.57  30 2.58 107 2.60  36 2.62 112 2.62  38 2.62 105 2.68
                             1 3.03 120 3.11
  38  0.128  0.624  0.879-  58 2.56  63 2.57  69 2.60  39 2.62  37 2.62 120 2.63  31 2.65  61 2.69
                           119 3.07
  39  0.001  0.749  0.002-  40 2.47 112 2.57  38 2.62 108 2.64   2 2.66 114 2.66 118 2.68  32 2.68
                           120 2.98 125 3.11
  40  0.126  0.868  0.109-  63 2.45  39 2.47  44 2.55  18 2.60 126 2.72 125 2.75  65 2.83   2 2.85
                            20 2.90
  41  0.136  0.862  0.398-  67 2.44  42 2.45  47 2.55   7 2.66  65 2.70 125 2.71 126 2.72  43 2.83

  42  0.011  0.745  0.506-  41 2.45  43 2.60  36 2.61  34 2.63  16 2.73 110 2.82 117 2.90 125 3.02
                           120 3.05 127 3.08
  43  0.130  0.873  0.631-  49 2.54  69 2.57  42 2.60 120 2.62  47 2.62  23 2.65  67 2.66   7 2.73
                            41 2.83   2 2.96
  44  0.243  0.001  0.995-   2 2.53  40 2.55  19 2.61   8 2.63  24 2.63  50 2.66  45 2.69  64 2.73
                           126 3.13
  45  0.379  0.128  0.116-  70 2.55  76 2.56  51 2.61 121 2.66  78 2.66  72 2.68  44 2.69 126 2.83

[...]

  50  0.371  0.127  0.870-  75 2.54  51 2.56  76 2.59  49 2.61  56 2.64  44 2.66  81 2.66  70 2.69
                             8 3.00
  51  0.248  0.247  0.994-  50 2.56  57 2.58 119 2.60  19 2.61  45 2.61  24 2.63  26 2.67  52 2.67
                           121 3.08
  52  0.375  0.373  0.123- 121 2.63 124 2.64 122 2.64  58 2.65  76 2.66  78 2.66  51 2.67  84 2.71

[...]

  54  0.252  0.251  0.506-  21 2.60  28 2.60  48 2.61  30 2.63  22 2.63  46 2.64  53 2.71  55 2.73
                            80 2.80  56 2.84 121 3.14
  55  0.269  0.475  0.519-  53 2.57  30 2.60 123 2.63  28 2.72  54 2.73  36 2.77  86 2.81  61 2.82
                            34 2.82  60 2.84
  56  0.254  0.255  0.740-  30 2.55  22 2.57  48 2.60  57 2.63  50 2.64 119 2.67  24 2.77  81 2.79
                            54 2.84
  57  0.372  0.375  0.878-  81 2.55  51 2.58  61 2.58  76 2.59  58 2.59 124 2.63  88 2.63  56 2.63
                           119 3.00
  58  0.249  0.501  0.999-  32 2.53  38 2.56  57 2.59  62 2.61  26 2.64 119 2.65  52 2.65  59 2.67
                           124 3.04 122 3.09
  59  0.375  0.625  0.130-  65 2.53 122 2.61  91 2.61  84 2.64 124 2.66  63 2.66  58 2.67  11 2.70

[...]

  71  0.621  0.122  0.121-  70 2.49  72 2.58  97 2.59  98 2.62  78 2.62 102 2.63  13 2.65  76 2.66
                             3 3.03
  72  0.501  0.000  0.248-  92 2.52  71 2.58  73 2.60  90 2.60  64 2.66  46 2.68  45 2.68  66 2.71
                           126 3.11
  73  0.618  0.123  0.378-  74 2.56 104 2.58  78 2.59  72 2.60  99 2.60  98 2.65  13 2.65  80 2.82
                            46 2.87   9 3.00
  74  0.497  1.000  0.498-  66 2.54  73 2.56  46 2.57  94 2.58  48 2.59  92 2.60  68 2.61   9 2.68

  75  0.500  0.012  0.754-   3 2.51  94 2.54  50 2.54  48 2.57   9 2.60  96 2.61   8 2.63  68 2.69
                             5 3.01
  76  0.498  0.248  0.992-  45 2.56   3 2.57  57 2.59  50 2.59  82 2.59  77 2.65  71 2.66  52 2.66
                           124 3.08
  77  0.617  0.374  0.126-  78 2.54  84 2.56 124 2.61 109 2.64  13 2.65  76 2.65  15 2.68 102 2.68

  78  0.503  0.249  0.250-  77 2.54  53 2.58  73 2.59  46 2.60  71 2.62  52 2.66  45 2.66  79 2.66
                            13 2.92 121 3.07
  79  0.626  0.379  0.379-   6 2.55  86 2.56  84 2.60  13 2.64 109 2.66  78 2.66  80 2.71 104 2.73
                            10 2.91  14 3.04
  80  0.483  0.263  0.506-  53 2.48  46 2.54  48 2.64  79 2.71  10 2.74   9 2.75  54 2.80  73 2.82
                            81 2.84  86 2.86
  81  0.484  0.262  0.740-  57 2.55  48 2.62  82 2.62  50 2.66   9 2.71  56 2.79  10 2.79  88 2.80
                            80 2.84   3 2.87
  82  0.620  0.372  0.867- 111 2.55 106 2.56  76 2.59 102 2.60  88 2.62  81 2.62 124 2.68  15 2.72
                             3 2.96  10 3.04
  83  0.628  0.627  0.132- 115 2.53 109 2.54  91 2.57  84 2.58 113 2.65  11 2.65  15 2.70 124 2.71
                            85 2.91
[...]
     0.012330998 -0.018049107 12.150357743    -0.000083558  0.000122035  0.082302370

  length of vectors
    12.123054369 12.161415501 12.150377406     0.082487901  0.082227900  0.082302502

 FORCES acting on ions
    electron-ion (+dipol)            ewald-force                    non-local-force                 convergence-correction
   0.335E+02 0.224E+01 0.460E+02   -.341E+02 -.241E+01 -.459E+02   0.604E+00 0.176E+00 -.598E-01   -.260E-02 0.223E-02 -.105E-02
   -.648E+02 0.290E+01 -.307E+02   0.653E+02 -.272E+01 0.310E+02   -.535E+00 -.180E+00 -.259E+00   -.443E-03 -.268E-02 0.158E-02
   0.807E+02 -.513E+02 0.433E+02   -.805E+02 0.511E+02 -.432E+02   -.194E+00 0.151E+00 -.103E+00   0.252E-03 -.137E-02 0.642E-02
   -.130E+02 0.580E+01 0.667E+02   0.135E+02 -.597E+01 -.673E+02   -.553E+00 0.171E+00 0.576E+00   -.915E-03 -.949E-03 -.219E-02
   0.521E+02 0.599E+02 0.107E+03   -.521E+02 -.600E+02 -.106E+03   0.265E-01 0.516E-01 -.701E+00   -.365E-02 -.406E-02 0.152E-02
   -.231E+02 -.551E+01 -.724E+02   0.226E+02 0.654E+01 0.716E+02   0.529E+00 -.103E+01 0.852E+00   -.127E-02 0.282E-02 -.382E-02
   -.939E+01 0.868E+02 0.638E+02   0.952E+01 -.861E+02 -.635E+02   -.131E+00 -.703E+00 -.295E+00   -.167E-02 0.648E-03 -.389E-02
   -.723E+02 0.404E+02 -.330E+02   0.724E+02 -.404E+02 0.329E+02   -.668E-01 0.320E-01 0.745E-01   0.777E-02 -.147E-02 0.147E-02
   0.511E+02 -.866E+02 0.677E+02   -.510E+02 0.862E+02 -.678E+02   -.638E-01 0.367E+00 0.931E-01   0.647E-03 -.208E-02 -.270E-02
   0.862E+02 0.441E+02 -.570E+01   -.869E+02 -.443E+02 0.604E+01   0.621E+00 0.140E+00 -.323E+00   0.327E-02 0.152E-02 -.184E-02
   -.244E+01 -.359E+02 0.420E+02   0.245E+01 0.356E+02 -.419E+02   -.119E-01 0.259E+00 -.112E+00   0.251E-02 0.310E-03 0.593E-03
   0.218E+02 -.279E+02 -.726E+02   -.214E+02 0.279E+02 0.724E+02   -.405E+00 0.166E-01 0.154E+00   -.338E-02 -.210E-02 0.184E-02
   -.345E+02 -.308E+02 0.164E+02   0.343E+02 0.307E+02 -.160E+02   0.156E+00 0.996E-01 -.318E+00   -.130E-02 -.124E-02 -.220E-04
   0.287E+02 0.260E+01 0.329E+02   -.284E+02 -.214E+01 -.331E+02   -.338E+00 -.454E+00 0.189E+00   -.854E-03 0.135E-03 -.685E-03
   0.367E+01 -.135E+02 -.643E+01   -.367E+01 0.134E+02 0.628E+01   0.165E-01 0.101E+00 0.160E+00   -.466E-02 -.215E-04 0.583E-03
   0.933E+02 -.855E+02 0.460E+02   -.931E+02 0.851E+02 -.458E+02   -.270E+00 0.367E+00 -.180E+00   -.194E-02 0.338E-03 -.114E-02
   0.223E+02 0.758E+02 0.965E+02   -.224E+02 -.761E+02 -.966E+02   0.128E+00 0.257E+00 0.188E-01   -.348E-02 0.355E-03 0.414E-03
   0.286E+02 -.211E+02 -.144E+03   -.279E+02 0.212E+02 0.143E+03   -.660E+00 -.149E+00 0.353E+00   -.692E-02 0.101E-02 0.574E-02
   0.104E+01 0.104E+03 -.105E+03   -.137E+01 -.103E+03 0.104E+03   0.339E+00 -.375E+00 0.360E+00   -.296E-02 -.221E-03 0.416E-02
   -.109E+03 0.820E+02 0.791E+00   0.109E+03 -.815E+02 -.964E+00   -.559E+00 -.498E+00 0.163E+00   -.244E-02 -.281E-03 0.871E-03
   -.659E+01 0.148E+03 0.235E+02   0.660E+01 -.148E+03 -.229E+02   0.695E-02 -.587E+00 -.583E+00   -.338E-02 -.184E-02 -.238E-02
   -.355E+02 0.570E+02 0.112E+03   0.357E+02 -.568E+02 -.112E+03   -.117E+00 -.150E+00 -.221E-01   -.151E-02 0.861E-03 -.329E-02
   -.464E+01 0.239E+02 0.747E+02   0.583E+01 -.238E+02 -.741E+02   -.119E+01 -.542E-01 -.599E+00   -.333E-02 0.120E-02 -.239E-02
   -.687E+02 0.212E+02 -.383E+02   0.692E+02 -.205E+02 0.384E+02   -.491E+00 -.683E+00 -.148E+00   -.130E-02 0.313E-02 0.140E-02
   0.905E+02 0.313E+02 -.104E+03   -.902E+02 -.313E+02 0.104E+03   -.235E+00 -.768E-01 0.230E-01   -.238E-02 0.616E-03 0.125E-02
   0.557E+02 0.128E+02 -.295E+02   -.560E+02 -.130E+02 0.290E+02   0.300E+00 0.247E+00 0.423E+00   -.425E-03 0.245E-02 0.243E-02
   0.847E+02 0.115E+02 -.117E+02   -.844E+02 -.116E+02 0.118E+02   -.278E+00 0.921E-01 -.918E-01   -.110E-02 -.760E-03 0.157E-02
   0.573E+02 -.206E+02 -.354E+02   -.577E+02 0.204E+02 0.356E+02   0.433E+00 0.165E+00 -.127E+00   -.295E-02 0.830E-03 -.228E-02
   0.422E+02 -.184E+02 0.604E+02   -.430E+02 0.186E+02 -.603E+02   0.743E+00 -.195E+00 -.104E+00   -.170E-02 0.760E-03 -.207E-02
   -.106E+03 -.480E+02 0.773E+02   0.107E+03 0.477E+02 -.771E+02   -.290E+00 0.383E+00 -.243E+00   -.545E-02 0.369E-03 -.253E-02
   0.972E+02 -.393E+02 -.421E+02   -.973E+02 0.392E+02 0.419E+02   0.397E-01 0.107E+00 0.194E+00   0.572E-03 -.410E-03 0.200E-02
   0.860E+02 -.997E+02 -.778E+02   -.858E+02 0.996E+02 0.770E+02   -.164E+00 0.775E-01 0.873E+00   0.152E-02 -.153E-02 0.187E-02
   0.795E+02 -.620E+02 -.661E+02   -.791E+02 0.623E+02 0.659E+02   -.472E+00 -.293E+00 0.205E+00   0.504E-03 -.544E-03 0.883E-03
   0.881E+02 -.633E+02 0.524E+01   -.876E+02 0.631E+02 -.462E+01   -.509E+00 0.205E+00 -.644E+00   -.727E-03 -.148E-02 -.342E-02
   0.904E+02 -.662E+02 0.429E+02   -.907E+02 0.664E+02 -.430E+02   0.366E+00 -.215E+00 0.312E-01   -.199E-02 -.168E-02 -.110E-02
   0.307E+02 0.113E+02 0.792E+02   -.311E+02 -.113E+02 -.796E+02   0.336E+00 -.928E-02 0.317E+00   -.401E-02 -.366E-03 -.116E-02
   0.103E+03 -.868E+02 0.717E+02   -.103E+03 0.871E+02 -.717E+02   0.298E+00 -.282E+00 0.245E-02   -.212E-02 -.649E-03 -.163E-02
   -.266E+01 0.402E+01 -.349E+01   0.271E+01 -.458E+01 0.342E+01   -.342E-01 0.547E+00 0.629E-01   -.947E-03 -.114E-02 0.261E-02
   0.715E+02 0.258E+02 -.108E+03   -.719E+02 -.258E+02 0.108E+03   0.347E+00 0.447E-01 0.370E+00   -.417E-02 -.992E-03 0.353E-02
   0.162E+02 -.371E+02 -.218E+03   -.163E+02 0.376E+02 0.217E+03   0.147E+00 -.492E+00 0.696E+00   -.943E-03 -.759E-03 0.592E-02
   0.896E+02 -.709E+02 0.135E+03   -.889E+02 0.711E+02 -.134E+03   -.696E+00 -.149E+00 -.936E+00   -.553E-03 0.243E-02 -.337E-02
   0.186E+03 -.156E+02 0.731E+02   -.186E+03 0.151E+02 -.726E+02   0.831E-01 0.587E+00 -.512E+00   -.286E-02 0.134E-04 -.115E-02
   0.325E+02 -.202E+02 0.121E+03   -.324E+02 0.204E+02 -.122E+03   -.122E+00 -.250E+00 0.828E+00   -.824E-03 -.611E-03 -.396E-02
   -.984E+02 0.973E+01 -.915E+02   0.983E+02 -.913E+01 0.915E+02   0.173E+00 -.606E+00 -.304E-01   0.514E-02 -.154E-03 0.281E-02
   0.258E+02 0.978E+02 -.580E+02   -.254E+02 -.975E+02 0.576E+02   -.343E+00 -.325E+00 0.379E+00   0.285E-02 -.449E-03 -.292E-03
   0.841E+01 0.668E+02 -.250E+01   -.810E+01 -.665E+02 0.304E+01   -.321E+00 -.216E+00 -.512E+00   -.219E-03 -.132E-02 -.820E-03
   0.209E+02 -.436E+01 0.103E+03   -.211E+02 0.427E+01 -.103E+03   0.151E+00 0.872E-01 0.134E+00   0.108E-05 -.307E-03 -.178E-02
   -.754E+02 -.907E+02 0.300E+02   0.757E+02 0.910E+02 -.298E+02   -.253E+00 -.254E+00 -.221E+00   0.156E-02 -.428E-02 -.498E-04
   -.870E+02 0.101E+02 0.123E+02   0.869E+02 -.103E+02 -.122E+02   0.176E+00 0.193E+00 -.704E-01   0.653E-02 0.137E-02 -.193E-02
   -.221E+02 0.227E+02 0.211E+02   0.218E+02 -.229E+02 -.209E+02   0.333E+00 0.219E+00 -.220E+00   0.329E-02 -.220E-02 0.100E-02
   -.416E+02 0.537E+02 -.341E+02   0.417E+02 -.540E+02 0.350E+02   -.127E+00 0.232E+00 -.895E+00   0.172E-02 0.276E-02 0.552E-03
   -.486E+02 0.306E+02 0.489E+01   0.491E+02 -.310E+02 -.518E+01   -.457E+00 0.372E+00 0.306E+00   0.332E-02 0.551E-02 -.531E-03
   -.527E+02 0.214E+02 -.134E+03   0.528E+02 -.214E+02 0.134E+03   -.105E+00 0.664E-02 -.237E-02   0.235E-02 0.414E-02 -.528E-02
   -.117E+03 -.460E+02 -.649E+02   0.116E+03 0.458E+02 0.646E+02   0.389E+00 0.278E+00 0.365E+00   -.229E-02 -.785E-03 -.205E-02
   -.853E+02 0.694E+02 -.748E+02   0.838E+02 -.682E+02 0.738E+02   0.124E+01 -.905E+00 0.778E+00   -.114E-02 -.778E-04 -.438E-02
   -.175E+03 -.664E+02 0.115E+03   0.175E+03 0.655E+02 -.114E+03   -.484E-01 0.963E+00 -.101E+01   0.277E-04 -.737E-03 0.716E-03
   -.550E+02 0.608E+01 0.129E+03   0.550E+02 -.612E+01 -.128E+03   0.367E-01 0.164E-01 -.264E+00   0.382E-02 0.297E-02 0.693E-02
   -.353E+02 -.317E+02 -.538E+01   0.357E+02 0.316E+02 0.566E+01   -.389E+00 0.893E-01 -.278E+00   0.390E-02 0.812E-03 0.351E-02
   -.478E+02 -.957E+02 0.393E+02   0.478E+02 0.958E+02 -.396E+02   -.107E-01 -.117E+00 0.328E+00   0.431E-02 -.109E-02 0.109E-03
   0.254E+01 -.218E+02 -.482E+02   -.268E+01 0.222E+02 0.482E+02   0.136E+00 -.421E+00 -.897E-02   0.422E-02 -.233E-03 -.529E-02
[...]
   -.543E+02 0.384E+02 -.935E+02   0.539E+02 -.378E+02 0.932E+02   0.394E+00 -.552E+00 0.299E+00   -.468E-02 0.131E-02 0.146E-02
   -.940E+02 0.276E+02 -.819E+02   0.941E+02 -.275E+02 0.821E+02   -.108E+00 -.931E-01 -.153E+00   -.316E-02 0.754E-03 -.791E-03
   -.825E+02 0.144E+03 -.809E+02   0.819E+02 -.143E+03 0.806E+02   0.611E+00 -.129E+01 0.311E+00   -.177E-02 0.120E-02 -.285E-02
   0.640E+02 0.159E+03 0.192E+03   -.644E+02 -.159E+03 -.192E+03   0.464E+00 -.201E+00 -.366E+00   -.265E-02 -.357E-02 -.348E-02
   0.707E+02 0.992E+02 -.841E+01   -.710E+02 -.992E+02 0.814E+01   0.324E+00 0.256E-01 0.255E+00   -.602E-02 -.288E-02 0.465E-02
   -.489E+02 -.333E+02 -.416E+01   0.490E+02 0.332E+02 0.419E+01   -.103E+00 0.681E-01 -.305E-01   -.206E-02 0.647E-03 0.277E-02
   0.160E+03 0.766E+02 0.145E+03   -.160E+03 -.765E+02 -.144E+03   -.205E+00 -.553E-01 -.278E+00   -.609E-02 -.360E-02 -.246E-02
   0.202E+01 0.133E+03 -.294E+02   -.205E+01 -.133E+03 0.292E+02   0.363E-01 -.100E-01 0.290E+00   -.223E-02 0.260E-02 0.780E-03
   0.400E+02 -.475E+02 -.610E+02   -.400E+02 0.478E+02 0.604E+02   0.701E-01 -.280E+00 0.645E+00   0.240E-02 0.114E-02 -.213E-02
   -.675E+02 0.957E+02 -.293E+00   0.676E+02 -.959E+02 0.573E+00   -.149E+00 0.144E+00 -.258E+00   0.555E-02 0.475E-02 -.173E-02
   -.905E+02 -.617E+02 0.373E+02   0.905E+02 0.619E+02 -.371E+02   -.472E-02 -.190E+00 -.201E+00   0.124E-02 0.204E-02 0.253E-02
   0.241E+02 -.319E+02 -.673E+02   -.241E+02 0.316E+02 0.670E+02   -.572E-01 0.353E+00 0.306E+00   -.231E-02 0.149E-02 -.584E-03
   0.374E+02 0.387E+02 -.219E+02   -.370E+02 -.384E+02 0.219E+02   -.426E+00 -.236E+00 0.462E-01   -.217E-02 -.215E-02 0.929E-03
   -.490E+02 0.151E+02 -.536E+02   0.483E+02 -.152E+02 0.535E+02   0.683E+00 0.881E-01 0.120E+00   -.308E-02 -.940E-03 -.138E-02
   0.627E+00 0.901E+00 0.457E+00   -.121E-11 -.151E-11 -.881E-12   -.642E+00 -.893E+00 -.466E+00   0.139E-02 0.194E-02 0.208E-02

 POSITION                                       TOTAL-FORCE (eV/Angst)
     12.11971      2.97545      9.10721         0.021187      0.006753     -0.001219
      1.53031     10.63659     10.61615        -0.001026     -0.000866     -0.008091
      7.59277      1.53203     10.59741         0.001858     -0.007868      0.003805
     10.59330      1.52063      4.56846         0.007952      0.002419     -0.005748
      9.08456      0.01480      9.17175         0.006680     -0.005414     -0.001281
      9.08722      6.08606      6.01547        -0.005050      0.001815      0.001781
     12.10218     12.12987      6.07296         0.004277      0.007434     -0.010258
      4.54469     10.68871     10.59156        -0.000205     -0.017657     -0.007428
      7.55200      1.57367      7.59305         0.006744     -0.007577      0.004054
      7.78661      4.56196      7.50725         0.019519     -0.010566      0.012628
      6.11790      9.11586      0.00713         0.000489     -0.006202      0.001641
     10.57904      1.47386      1.42687         0.000473      0.000819     -0.005493
      9.01416      3.00850      3.04775         0.000393     -0.003182      0.006263
     10.62281      4.55981      4.62167        -0.003275      0.006274      0.008360
      9.09586      6.02334      0.00209         0.004614     -0.003181      0.007577
     10.68573      7.38218      7.63763        -0.005765     -0.002046     -0.002556
      9.05976      9.11541      9.18495         0.001144     -0.001582     -0.002980
      0.00316     12.08396     12.04036        -0.002643      0.005169     -0.006699
      1.40390      1.54749      1.39088         0.001353      0.009164     -0.000755
     12.04248      0.02919      3.09647        -0.007661      0.008866     -0.009465
      1.51477      1.61404      4.62017         0.018017      0.010541      0.010682
      1.51695      1.54050      7.66281         0.021385      0.005640     -0.007625
      0.01080     -0.00473      9.12584         0.001406      0.004964     -0.003666
      1.44530      1.51080     10.56433         0.007720      0.002782     -0.003180
     12.11620      3.01583     12.12716         0.007254      0.003923     -0.000442
      1.49978      4.54493      1.50835         0.004684      0.001634      0.004373
     12.11197      2.98291      3.04754         0.002421      0.000997      0.000214
      1.54840      4.50665      4.60829        -0.002705      0.001039     -0.000636
      0.03636      2.93070      6.08037         0.017979      0.004777      0.005898
      1.43010      4.47139      7.63450         0.002257      0.005067     -0.003667
     12.10439      6.05698      0.04886         0.001211      0.004732     -0.004296
      1.58205      7.52552      1.49433        -0.003723      0.000559     -0.006386
      0.03724      6.03052      3.01755        -0.008762      0.004931     -0.001915
      1.65792      7.44831      4.71673        -0.036942      0.027393     -0.033006
      0.18252      5.97889      6.13177         0.018888      0.020533     -0.010931
      1.58074      7.50498      7.66540        -0.007244      0.004300      0.003729
      0.06020      6.01497      9.18555         0.014223     -0.001117     -0.007855
      1.55102      7.57437     10.67475         0.007178     -0.008697     -0.006828
      0.00575      9.11074      0.00896        -0.007950      0.006142     -0.006974
      1.52134     10.55445      1.31494         0.000206      0.003877     -0.012599
      1.63828     10.47624      4.82275         0.003082     -0.002521      0.000421
      0.13296      9.05599      6.13701        -0.015496      0.013574     -0.005165
      1.57447     10.59882      7.65250         0.001772     -0.005884     -0.008350
      2.95388     -0.01053     12.09595         0.004855     -0.003422     -0.002016
      4.58944      1.54513      1.41600         0.005128     -0.003265      0.011907
      4.61944      1.57026      4.61669        -0.007227     -0.001001      0.025425
      3.05616     -0.00999      6.15311        -0.002346     -0.002674     -0.010741
      4.51580      1.42579      7.58992         0.009316     -0.032616      0.006051
      2.98149      0.01199      9.10081        -0.001136     -0.010877      0.001160
      4.50126      1.52856     10.57873         0.005835     -0.015412      0.003798
      3.01781      2.98294     12.08050         0.000449     -0.004654      0.005200
      4.54393      4.53196      1.49340        -0.003668     -0.004567      0.010348
      4.60188      4.53305      4.49056         0.001257     -0.005229     -0.004642
      3.05534      3.04176      6.14693         0.040815      0.066067      0.044626
      3.25957      5.76348      6.30679        -0.229125      0.280157     -0.245190
      3.08211      3.08897      8.99008         0.030558     -0.005338      0.001190
      4.50964      4.53611     10.66662         0.012018     -0.015986      0.028885
      3.02287      6.06560     12.13448        -0.003919     -0.003702      0.004019
      4.53744      7.58768      1.56825        -0.003059     -0.004432      0.002162
      4.63506      7.54829      4.57906         0.007522      0.000273     -0.003627
[...]
      9.08867      9.12407      0.02570        -0.004131     -0.004082     -0.005405
     10.54420     10.68965      1.45169        -0.008543      0.003699     -0.008255
      9.06703      9.12513      2.99101        -0.002920      0.005582     -0.005347
     10.51057     10.79554      4.42351        -0.000147     -0.000111     -0.002964
     10.63019     10.79826      7.78650         0.001062      0.007263     -0.007537
     10.58233     10.67646     10.68437        -0.000396      0.004795     -0.010440
      1.51081      4.50717     10.61633         0.015912      0.002010     -0.002074
      0.04036      9.12964      9.17979         0.000907      0.000064     -0.003890
      3.03335      3.00060      3.01163         0.006334     -0.001610      0.012653
      3.06777      6.05055      3.07542        -0.006185      0.007806      0.019413
      4.59637      7.62086      7.61056         0.021833     -0.000846      0.019564
      6.05888      6.06675     12.13294         0.001352     -0.007303      0.011655
      0.03061      9.11708      3.11988        -0.008152      0.012574     -0.014193
      2.95571     12.07103      3.05277        -0.009528     -0.000030     -0.001180
      9.18228      9.19489      6.07754        -0.008104      0.002970     -0.003688
    total drift:                               -0.013144      0.009903     -0.006545

  FREE ENERGIE OF THE ION-ELECTRON SYSTEM (eV)
  free  energy   TOTEN  =     -1144.15356079 eV

  energy  without entropy=    -1144.10452046  energy(sigma->0) =    -1144.13721401