 vasp.6.4.2 20Jul23 (build Sep 20 2024 16:56:05) complex
 executed on              LinuxNV date 2025.02.03  21:34:22
 OpenACC runtime initialized ...    4 GPUs detected

 INCAR:
   PREC = Accurate
   ENCUT = 520
   EDIFF = 1e-06
   ISMEAR = 1
   SIGMA = 0.2
   NSW = 0
   IBRION = -1
   LWAVE = .FALSE.
   LCHARG = .TRUE.
   LREAL = .FALSE.
   ALGO = Normal

 POTCAR:    PAW_PBE Cr_pv 02Aug2007
 POTCAR:    PAW_PBE Ti_pv 07Sep2000
 POTCAR:    PAW_PBE V_pv 07Sep2000
 POTCAR:    PAW_PBE W_sv 04Sep2015
 POTCAR:    PAW_PBE Zr_sv 04Jan2005
 POTCAR:    PAW_PBE Cr_pv 02Aug2007
   VRHFIN =Cr : p6d5s1

   TITEL  = PAW_PBE Cr_pv 02Aug2007
   POMASS =   51.996; ZVAL   =   12.000    mass and valenz
   ENMAX  =  265.681; ENMIN  =  199.261 eV

   TITEL  = PAW_PBE Ti_pv 07Sep2000
   POMASS =   47.880; ZVAL   =   10.000    mass and valenz
   ENMAX  =  222.335; ENMIN  =  166.751 eV

   TITEL  = PAW_PBE V_pv 07Sep2000
   POMASS =   50.941; ZVAL   =   11.000    mass and valenz
   ENMAX  =  263.673; ENMIN  =  197.755 eV

   TITEL  = PAW_PBE W_sv 04Sep2015
   POMASS =  183.850; ZVAL   =   14.000    mass and valenz
   ENMAX  =  223.057; ENMIN  =  167.293 eV

   TITEL  = PAW_PBE Zr_sv 04Jan2005
   POMASS =   91.224; ZVAL   =   12.000    mass and valenz
   ENMAX  =  229.898; ENMIN  =  172.424 eV

  PAW_PBE Cr_pv 02Aug2007               :
  PAW_PBE Ti_pv 07Sep2000               :
  PAW_PBE V_pv 07Sep2000                :
  PAW_PBE W_sv 04Sep2015                :
  PAW_PBE Zr_sv 04Jan2005               :

 POSCAR: Cr Ti V  W  Zr
  positions in cartesian coordinates
 exchange correlation table for  LEXCH =        8
   RHO(1)=    0.500       N(1)  =     2000
   RHO(2)=  100.500       N(2)  =     4000

 ion  position               nearest neighbor table
   1  0.250  0.749  0.001-  65 2.53  36 2.53  28 2.54  22 2.55  59 2.55  30 2.55  58 2.55  53 2.56
                            90 2.99  29 2.99  60 3.01  52 3.02  37 3.04
   2  0.749  0.258  0.254-  77 2.50  67 2.51 104 2.52  98 2.53  69 2.58  75 2.58 124 2.59  99 2.60
                           105 2.98  76 2.99  15 3.02 111 3.02 103 3.04
   3  0.251  0.500  0.749-  26 2.65  51 2.65  20 2.65  57 2.65  49 2.66  18 2.66  58 2.67  28 2.68
                            50 2.96  64 2.98  88 2.99  27 3.00  52 3.02  56 3.03
   4  0.750  0.003  0.755- 121 2.67 101 2.67  71 2.67  95 2.68 102 2.70  73 2.70 123 2.70  97 2.70
                            11 2.95  72 2.95 100 2.96 107 3.00 127 3.14
   5  0.004  0.001  0.001-  12 2.54 117 2.55   6 2.58  36 2.61  30 2.63 123 2.66 102 2.66  98 2.79
                           127 3.08
   6  0.126  0.125  0.127-   7 2.55   5 2.58  39 2.59  37 2.59  46 2.59  44 2.61  15 2.61  13 2.62

   7  0.007  1.000  0.250-   8 2.55  32 2.55   6 2.55 117 2.56  98 2.60 119 2.61  30 2.62  99 2.68

[...]

  11  0.995  0.001  0.751- 121 2.58 123 2.58 102 2.62 101 2.62  12 2.66  10 2.70  34 2.71  36 2.73
                             4 2.95 126 3.07
  12  0.121  0.129  0.880-  13 2.54   5 2.54  44 2.58  19 2.61  37 2.63  11 2.66  50 2.68 126 2.74
                           102 2.88
  13  0.000  0.252  0.002- 102 2.50  12 2.54  20 2.57  14 2.59   6 2.62 124 2.65 108 2.65  98 2.65

[...]

  26  0.125  0.626  0.621-  33 2.59  64 2.59  62 2.59  25 2.61  56 2.62  35 2.62  27 2.64   3 2.65
                           125 3.02
  27  0.002  0.499  0.750- 108 2.58  20 2.60  18 2.61 115 2.62 125 2.64  26 2.64 106 2.64  28 2.67
                             3 3.00
  28  0.126  0.628  0.880-  29 2.53   1 2.54  21 2.58  52 2.61  64 2.61  35 2.62  27 2.67   3 2.68
                            36 2.89
  29  0.001  0.748  1.000- 117 2.45  36 2.52 123 2.53  28 2.53  22 2.58 110 2.59 115 2.62  30 2.64
                             1 2.99
  30  0.131  0.873  0.124-   1 2.55  37 2.56  60 2.59  39 2.61  31 2.62   7 2.62   5 2.63  29 2.64
                           117 2.83  59 2.87
  31  0.003  0.753  0.251- 117 2.42  32 2.57 112 2.58  24 2.59 110 2.60  30 2.62  22 2.65 119 2.67

[...]

  41  0.250  0.000  0.493-  61 2.56  32 2.56   8 2.58  40 2.59  42 2.67  10 2.68  34 2.70  63 2.70
                           126 3.03
  42  0.382  0.130  0.616-  78 2.50  70 2.57  48 2.59  80 2.59  41 2.67  72 2.70  50 2.71 126 2.73

[...]

  58  0.375  0.628  0.880-  90 2.51   1 2.55  52 2.60  82 2.60  64 2.62  96 2.62  88 2.67   3 2.67
                            65 2.88
  59  0.369  0.874  0.124-   1 2.55  37 2.56  60 2.58  39 2.60  68 2.62  92 2.63  66 2.63  90 2.65
                            91 2.82  30 2.87
  60  0.250  0.747  0.251-  24 2.57  55 2.58  59 2.58  22 2.59  30 2.59  53 2.59  61 2.61  32 2.61
                             1 3.01
  61  0.374  0.876  0.373-  41 2.56  68 2.56  92 2.57  39 2.59  62 2.60  60 2.61  70 2.62  94 2.63

[...]

  64  0.250  0.747  0.748-  26 2.59  28 2.61  57 2.61  58 2.62  65 2.63  36 2.65  63 2.67  34 2.68
                             3 2.98 126 3.04
  65  0.375  0.867  0.880-  90 2.52   1 2.53  66 2.61  96 2.62  64 2.63  37 2.66 126 2.73  72 2.73
                            58 2.88
  66  0.495  0.001  0.000-  43 2.54  91 2.57  38 2.58  65 2.61  59 2.63  73 2.66  97 2.67  67 2.82
                           127 3.06
  67  0.621  0.139  0.140-  76 2.38   2 2.51  74 2.60  68 2.63 103 2.66 127 2.73  69 2.81  66 2.82
                            75 2.89
  68  0.494  0.001  0.249-  40 2.55  38 2.55  61 2.56  91 2.56  93 2.62  59 2.62  67 2.63  69 2.68

[...]

  90  0.498  0.747  1.000-  91 2.44  58 2.51  65 2.52  97 2.53  53 2.58  83 2.60  89 2.63  59 2.65
                             1 2.99
  91  0.603  0.866  0.125-  92 2.41  90 2.44  68 2.56 118 2.57  66 2.57 127 2.71 116 2.73  59 2.82
                            83 2.87
  92  0.497  0.752  0.251-  91 2.41  61 2.57  55 2.58  85 2.59  83 2.61  59 2.63  53 2.65  93 2.67

[...]

 102  0.882  0.137  0.877-  13 2.50  19 2.51 107 2.60  11 2.62 103 2.62   5 2.66   4 2.70 127 2.85
                            12 2.88 108 2.91
 103  0.749  0.255  0.001-  81 2.60  75 2.60 124 2.61  73 2.61 102 2.62 108 2.62  67 2.66  98 2.73
                             2 3.04 127 3.09
 104  0.872  0.375  0.376-   2 2.52 113 2.58 105 2.58  17 2.59  25 2.60  15 2.63 111 2.65  23 2.66
                           124 3.00
 105  0.750  0.249  0.501-  71 2.56 101 2.56 104 2.58 106 2.58  69 2.59  99 2.60  77 2.60  79 2.60
                             2 2.98
 106  0.874  0.373  0.624- 105 2.58 107 2.59  19 2.60  17 2.60 114 2.61  27 2.64  25 2.64 113 2.65
                           125 3.02
 107  0.750  0.252  0.751- 106 2.59  73 2.59 108 2.60 102 2.60  79 2.61  81 2.61  71 2.62 101 2.63
                             4 3.00
 108  0.875  0.378  0.873- 114 2.58  27 2.58 107 2.60  19 2.62 103 2.62  21 2.62 109 2.65  13 2.65
                           102 2.91 124 3.06
 109  0.749  0.505  0.001-  89 2.56 115 2.57  83 2.60  75 2.61 124 2.62  81 2.62 110 2.63 108 2.65

[...]

 115  0.875  0.622  0.876- 109 2.57  21 2.57 116 2.62 122 2.62  29 2.62  27 2.62 114 2.62  35 2.63
                           125 3.03
 116  0.750  0.749  0.000- 110 2.56  83 2.57  97 2.61 123 2.61 115 2.62  89 2.63  91 2.73 117 2.73
                           127 3.03
 117  0.896  0.868  0.126-  31 2.42  29 2.45   5 2.55   7 2.56 118 2.57 127 2.72 116 2.73  30 2.83
                           110 2.87
 118  0.750  0.773  0.248-  93 2.57 117 2.57  91 2.57 119 2.57 110 2.70 112 2.70  83 2.71  85 2.72

[...]

 121  0.875  0.876  0.625- 100 2.55  11 2.58 120 2.60   9 2.61  35 2.62  33 2.62 122 2.64   4 2.67
                           125 3.03
 122  0.749  0.749  0.752-  97 2.59  89 2.60 123 2.60  95 2.61 115 2.62 125 2.63 121 2.64  87 2.64

 123  0.882  0.867  0.875-  35 2.52  29 2.53  11 2.58 122 2.60 116 2.61   5 2.66   4 2.70 127 2.83

 124  0.874  0.379  0.127-   2 2.59  23 2.60 103 2.61 109 2.62  21 2.63 111 2.64  15 2.64  13 2.65
                            98 2.96  75 2.99 104 3.00 110 3.04  14 3.04 108 3.06
 125  0.874  0.624  0.624- 113 2.61 114 2.62  35 2.62 122 2.63  25 2.64  27 2.64  33 2.64 120 2.66
                            87 3.02  26 3.02 106 3.02 112 3.03 115 3.03 121 3.03
 126  0.250  0.999  0.745-  34 2.71  63 2.72  10 2.73  42 2.73  65 2.73  36 2.73  43 2.74  12 2.74
                            41 3.03  64 3.04  72 3.07  11 3.07  50 3.08  37 3.10
 127  0.748  0.999  0.016-  91 2.71 117 2.72  98 2.72  67 2.73  97 2.81 123 2.83  73 2.85 102 2.85
                           116 3.03  66 3.06   5 3.08 103 3.09   4 3.14

  LATTYP: Found a triclinic cell.
 ALAT       =    17.0358975283
 B/A-ratio  =     0.7070015846
 C/A-ratio  =     0.7071772766
 COS(alpha) =     0.0000417821
 COS(beta)  =     0.0004596508
 COS(gamma) =     0.7064723174

  Lattice vectors:

 A1 = ( -12.0398988670, -12.0524945360,  -0.0039149010)
 A2 = ( -12.0444057020,   0.0045050720,  -0.0002512580)
 A3 = (  -0.0002534140,  -0.0036608590, -12.0473990590)

Analysis of symmetry for initial positions (statically):
 Subroutine PRICEL returns:
 Original cell was already a primitive cell.

 Routine SETGRP: Setting up the symmetry group for a
 triclinic supercell.

 Subroutine GETGRP returns: Found  1 space group operations
 (whereof  1 operations were pure point group operations)
 out of a pool of  2 trial point group operations.

The static configuration has the point symmetry C_1 .

Analysis of symmetry for dynamics (positions and initial velocities):
 Subroutine PRICEL returns:
 Original cell was already a primitive cell.

 Routine SETGRP: Setting up the symmetry group for a
 triclinic supercell.

 Subroutine GETGRP returns: Found  1 space group operations
 (whereof  1 operations were pure point group operations)
 out of a pool of  2 trial point group operations.

The dynamic configuration has the point symmetry C_1 .

 Subroutine INISYM returns: Found  1 space group operations
 (whereof  1 operations are pure point group operations),
 and found     1 'primitive' translations

                                     Primitive cell

  volume of cell :    1749.5156

  direct lattice vectors                    reciprocal lattice vectors
    12.044405702 -0.004505072  0.000251258     0.083026109  0.000031035 -0.000001756
    -0.004506835 12.056999608  0.003663643     0.000031023  0.082939393 -0.000025204
     0.000253414  0.003660859 12.047399059    -0.000001741 -0.000025223  0.083005476

  length of vectors
    12.044406547 12.057001007 12.047399618     0.083026115  0.082939403  0.083005480

  position of ions in fractional coordinates (direct lattice)
     0.249810202  0.749014838  0.001037827
     0.749200751  0.257840021  0.253538304
     0.250900827  0.499504695  0.749117457
     0.749837173  0.003207605  0.755006936
     0.003862757  0.001096671  0.001321033
     0.125778044  0.125122558  0.126749349
     0.007189506  0.999977338  0.250217878
     0.124178934  0.125611026  0.373504570
     0.998020772  0.000736698  0.498184422
     0.118196986  0.130604343  0.616242707
     0.994880367  0.000696013  0.751237461
     0.120814322  0.128645739  0.880298584
     0.000485145  0.251559740  0.001774512
     0.126256607  0.376547859  0.123307009
     0.999645602  0.249642502  0.250995711
     0.124022438  0.375207315  0.372666680
     0.997875654  0.249686009  0.497529341
[...]
     0.000253414  0.003660859 12.047399059    -0.000001741 -0.000025223  0.083005476

  length of vectors
    12.044406547 12.057001007 12.047399618     0.083026115  0.082939403  0.083005480

 FORCES acting on ions
    electron-ion (+dipol)            ewald-force                    non-local-force                 convergence-correction
   -.585E+01 -.290E+02 0.403E+02   0.582E+01 0.288E+02 -.402E+02   0.124E-01 0.174E+00 -.107E+00   0.140E-01 0.212E-02 0.617E-02
   0.201E+02 0.217E+03 0.504E+01   -.203E+02 -.217E+03 -.466E+01   0.128E+00 -.451E-01 -.380E+00   -.105E-01 -.124E-01 0.904E-02
   -.397E+01 0.111E+02 0.168E+02   0.391E+01 -.112E+02 -.168E+02   0.505E-01 0.481E-01 0.816E-02   0.718E-02 -.203E-01 -.115E-01
   0.598E+01 0.376E+00 -.918E+02   -.598E+01 -.535E+00 0.915E+02   0.149E-01 0.121E+00 0.289E+00   -.131E-01 0.245E-01 -.875E-02
   0.144E+03 -.281E+02 0.107E+02   -.144E+03 0.282E+02 -.107E+02   0.264E-01 -.202E+00 0.542E-03   0.178E-02 0.261E-01 0.249E-02
   0.415E+02 0.157E+02 0.218E+02   -.413E+02 -.152E+02 -.219E+02   -.178E+00 -.446E+00 0.573E-01   0.135E-01 0.202E-01 0.800E-02
   0.200E+03 -.106E+01 0.169E+02   -.199E+03 0.120E+01 -.167E+02   -.721E+00 -.120E+00 -.238E+00   -.581E-02 0.257E-01 0.139E-01
   0.232E+02 0.747E+01 -.249E+02   -.228E+02 -.725E+01 0.251E+02   -.420E+00 -.258E+00 -.176E+00   0.126E-01 0.195E-01 0.548E-02
   0.244E+02 -.138E+02 -.828E+01   -.243E+02 0.141E+02 0.825E+01   -.794E-01 -.333E+00 0.438E-02   -.501E-02 0.215E-01 -.799E-02
   -.597E+02 0.684E+02 -.793E+02   0.592E+02 -.678E+02 0.789E+02   0.457E+00 -.679E+00 0.416E+00   0.118E-01 0.170E-01 -.788E-02
   -.114E+02 -.917E+01 -.219E+02   0.116E+02 0.923E+01 0.219E+02   -.220E+00 -.847E-01 -.300E-01   -.899E-03 0.246E-01 -.905E-02
   -.318E+02 0.632E+02 0.824E+02   0.312E+02 -.623E+02 -.820E+02   0.516E+00 -.889E+00 -.408E+00   0.113E-01 0.165E-01 -.488E-02
   0.242E+02 0.796E+02 0.134E+02   -.240E+02 -.795E+02 -.130E+02   -.185E+00 -.169E+00 -.411E+00   -.293E-02 -.968E-03 0.755E-02
   -.103E+01 0.251E+02 -.692E+01   0.914E+00 -.251E+02 0.713E+01   0.109E+00 0.527E-01 -.215E+00   0.846E-02 -.174E-01 0.108E-01
   -.124E+02 0.578E+02 -.337E+02   0.133E+02 -.574E+02 0.343E+02   -.905E+00 -.362E+00 -.593E+00   -.684E-02 0.781E-04 0.846E-02
   -.846E+01 0.155E+02 -.202E+02   0.857E+01 -.154E+02 0.203E+02   -.104E+00 -.135E+00 -.966E-01   0.909E-02 -.150E-01 0.558E-02
   0.613E+01 0.321E+02 0.106E+02   -.644E+01 -.319E+02 -.112E+02   0.310E+00 -.235E+00 0.580E+00   -.520E-03 0.260E-02 -.601E-02
   -.510E+02 -.468E+01 -.362E+02   0.508E+02 0.449E+01 0.358E+02   0.185E+00 0.199E+00 0.363E+00   0.841E-02 -.133E-01 -.102E-01
   -.258E+02 0.501E+02 0.234E+01   0.258E+02 -.497E+02 -.243E+01   -.600E-01 -.355E+00 0.101E+00   -.130E-02 0.256E-03 -.102E-01
   -.397E+02 0.653E+01 0.596E+02   0.395E+02 -.680E+01 -.593E+02   0.169E+00 0.282E+00 -.273E+00   0.924E-02 -.166E-01 -.559E-02
   -.437E+01 -.836E+01 0.235E+02   0.441E+01 0.865E+01 -.235E+02   -.322E-01 -.263E+00 -.200E-01   -.943E-03 -.221E-01 0.843E-02
   0.442E+02 0.160E+02 -.318E+02   -.441E+02 -.161E+02 0.319E+02   -.789E-01 0.104E+00 -.114E+00   0.502E-02 -.143E-01 0.946E-02
   -.790E+01 -.193E+02 -.272E+02   0.807E+01 0.195E+02 0.274E+02   -.154E+00 -.153E+00 -.214E+00   -.478E-02 -.210E-01 0.124E-01
   0.788E+01 -.553E+01 -.292E+02   -.778E+01 0.551E+01 0.295E+02   -.106E+00 0.449E-01 -.312E+00   0.709E-03 -.171E-01 0.595E-02
   -.189E+02 0.111E+02 0.589E+01   0.189E+02 -.111E+02 -.619E+01   0.551E-01 -.417E-02 0.320E+00   -.116E-03 -.197E-01 -.598E-02
   -.529E+02 0.236E+02 -.362E+02   0.526E+02 -.235E+02 0.358E+02   0.248E+00 -.164E+00 0.370E+00   0.606E-02 -.195E-01 -.117E-01
   -.658E+02 0.147E+02 -.320E+01   0.662E+02 -.146E+02 0.341E+01   -.381E+00 -.361E-01 -.187E+00   0.234E-02 -.230E-01 -.147E-01
   -.771E+01 0.452E+02 0.945E+02   0.776E+01 -.451E+02 -.945E+02   -.538E-01 -.747E-01 -.691E-02   0.867E-02 -.156E-01 -.307E-02
   0.722E+02 -.416E+02 0.424E+01   -.722E+02 0.408E+02 -.437E+01   -.922E-01 0.832E+00 0.133E+00   0.384E-02 -.389E-02 0.511E-02
   0.627E+02 -.581E+02 -.137E+02   -.630E+02 0.579E+02 0.136E+02   0.266E+00 0.168E+00 0.265E-01   0.120E-01 0.116E-01 0.728E-02
   0.690E+02 -.403E+02 -.286E+02   -.685E+02 0.398E+02 0.291E+02   -.618E+00 0.501E+00 -.557E+00   -.492E-02 -.547E-02 0.159E-01
   0.295E+02 -.173E+02 -.256E+02   -.294E+02 0.171E+02 0.259E+02   -.151E+00 0.218E+00 -.331E+00   0.629E-02 0.126E-01 0.608E-02
   0.144E+02 -.372E+02 0.343E+02   -.146E+02 0.371E+02 -.350E+02   0.201E+00 0.144E+00 0.691E+00   -.439E-02 -.430E-02 -.949E-02
   -.565E+02 -.904E+02 -.673E+02   0.562E+02 0.900E+02 0.669E+02   0.298E+00 0.401E+00 0.456E+00   0.839E-02 0.148E-01 -.103E-01
   -.246E+02 -.580E+02 -.951E+01   0.249E+02 0.578E+02 0.970E+01   -.266E+00 0.242E+00 -.181E+00   0.144E-02 -.215E-02 -.113E-01
   0.809E+01 -.118E+03 0.103E+03   -.853E+01 0.118E+03 -.102E+03   0.426E+00 0.577E+00 -.486E+00   0.106E-01 0.150E-01 -.257E-02
   -.424E+01 -.386E+02 0.928E+02   0.423E+01 0.390E+02 -.930E+02   -.131E-01 -.481E+00 0.202E+00   0.191E-01 0.243E-01 0.454E-02
   -.509E+02 0.158E+02 0.217E+02   0.507E+02 -.153E+02 -.218E+02   0.181E+00 -.482E+00 0.604E-01   0.108E-01 0.134E-01 0.593E-02
   -.396E+01 -.105E+02 -.794E+01   0.389E+01 0.104E+02 0.785E+01   0.509E-01 0.433E-01 0.875E-01   0.167E-01 0.252E-01 0.742E-02
   -.329E+02 0.842E+01 -.248E+02   0.324E+02 -.820E+01 0.250E+02   0.407E+00 -.245E+00 -.180E+00   0.620E-02 0.155E-01 0.168E-02
   -.367E+01 -.781E+01 -.109E+03   0.365E+01 0.792E+01 0.109E+03   0.680E-02 -.151E+00 -.322E+00   0.119E-01 0.249E-01 -.397E-02
   0.530E+02 0.671E+02 -.778E+02   -.525E+02 -.664E+02 0.773E+02   -.490E+00 -.677E+00 0.434E+00   0.618E-02 0.154E-01 -.501E-02
   0.231E+02 0.631E+02 0.807E+02   -.225E+02 -.621E+02 -.803E+02   -.601E+00 -.980E+00 -.439E+00   0.115E-01 0.124E-01 -.184E-02
   -.377E+01 0.312E+02 0.443E+02   0.374E+01 -.311E+02 -.441E+02   0.183E-01 -.118E+00 -.210E+00   0.137E-01 -.479E-02 0.654E-02
   -.148E+02 0.243E+02 -.675E+01   0.148E+02 -.242E+02 0.697E+01   -.350E-01 0.143E-01 -.221E+00   0.461E-02 -.209E-01 0.102E-01
   -.311E+01 0.161E+02 -.182E+02   0.307E+01 -.162E+02 0.183E+02   0.311E-01 0.843E-01 -.157E+00   0.120E-01 -.206E-02 0.100E-01
   0.433E+00 0.129E+02 -.222E+02   -.541E+00 -.127E+02 0.224E+02   0.981E-01 -.170E+00 -.138E+00   0.263E-02 -.175E-01 0.387E-02
   -.442E+01 0.208E+02 -.420E+02   0.440E+01 -.206E+02 0.419E+02   0.688E-02 -.167E+00 0.177E+00   0.965E-02 0.637E-03 -.576E-02
   0.445E+02 -.563E+01 -.359E+02   -.443E+02 0.545E+01 0.355E+02   -.182E+00 0.194E+00 0.393E+00   0.404E-02 -.175E-01 -.756E-02
   -.344E+01 0.636E+02 0.151E+02   0.343E+01 -.637E+02 -.151E+02   -.599E-02 0.129E-02 0.446E-02   0.125E-01 -.207E-02 -.107E-01
   0.309E+02 0.300E+01 0.614E+02   -.307E+02 -.324E+01 -.611E+02   -.170E+00 0.256E+00 -.228E+00   0.580E-02 -.210E-01 -.581E-02
   -.491E+01 0.338E+02 0.607E+02   0.485E+01 -.339E+02 -.609E+02   0.499E-01 0.108E+00 0.241E+00   0.906E-02 -.216E-01 0.407E-02
   -.519E+02 0.149E+02 -.306E+02   0.518E+02 -.149E+02 0.307E+02   0.620E-01 0.816E-01 -.115E+00   0.997E-02 -.109E-01 0.802E-02
   -.417E+01 0.153E+02 -.286E+02   0.411E+01 -.152E+02 0.288E+02   0.599E-01 -.775E-01 -.155E+00   0.808E-02 -.244E-01 0.115E-01
   -.161E+02 -.513E+01 -.309E+02   0.160E+02 0.510E+01 0.312E+02   0.953E-01 0.582E-01 -.310E+00   0.104E-01 -.157E-01 0.408E-02
   -.604E+01 0.982E+01 -.517E+02   0.601E+01 -.981E+01 0.519E+02   0.223E-01 0.141E-01 -.200E+00   0.659E-02 -.242E-01 -.254E-02
   0.423E+02 0.229E+02 -.338E+02   -.423E+02 -.227E+02 0.335E+02   -.686E-01 -.139E+00 0.369E+00   0.433E-02 -.183E-01 -.109E-01
   -.333E+00 0.480E+02 0.943E+02   0.231E+00 -.480E+02 -.944E+02   0.965E-01 -.178E-01 0.264E-01   0.490E-02 -.131E-01 -.552E-03
   -.726E+02 -.574E+02 -.130E+02   0.729E+02 0.572E+02 0.130E+02   -.334E+00 0.189E+00 0.329E-01   0.134E-01 0.183E-01 0.482E-02
   -.455E+01 -.209E+02 -.415E+02   0.454E+01 0.210E+02 0.419E+02   -.468E-02 -.894E-01 -.398E+00   0.110E-01 0.645E-03 0.815E-02
[...]
   0.187E+02 0.141E+02 -.125E+02   -.188E+02 -.141E+02 0.127E+02   0.134E+00 0.411E-01 -.206E+00   -.795E-02 -.257E-01 -.129E-01
   0.111E+02 -.419E+02 -.835E+01   -.110E+02 0.421E+02 0.822E+01   -.612E-01 -.249E+00 0.122E+00   -.398E-02 -.164E-01 -.407E-02
   0.790E+01 -.162E+03 -.427E+02   -.794E+01 0.163E+03 0.427E+02   0.533E-01 -.142E+00 0.325E-01   -.132E-01 -.363E-03 0.861E-02
   0.251E+03 -.201E+03 -.569E+02   -.251E+03 0.200E+03 0.565E+02   -.653E+00 0.955E+00 0.437E+00   -.992E-02 0.878E-02 0.175E-01
   0.816E+01 -.208E+03 0.255E+02   -.815E+01 0.204E+03 -.253E+02   0.605E-02 0.299E+01 -.278E+00   -.123E-01 0.305E-02 0.206E-01
   0.163E+03 -.115E+03 0.154E+03   -.163E+03 0.114E+03 -.154E+03   -.626E+00 0.116E+01 -.630E+00   -.176E-01 0.106E-01 0.241E-02
   0.183E+02 -.798E+02 0.577E+02   -.184E+02 0.802E+02 -.578E+02   0.729E-01 -.303E+00 0.500E-01   -.804E-02 0.225E-02 -.159E-01
   0.373E+02 -.729E+02 -.380E+02   -.369E+02 0.725E+02 0.380E+02   -.389E+00 0.384E+00 -.557E-01   -.105E-01 0.155E-01 -.142E-01
   0.199E+02 -.111E+03 -.328E+02   -.201E+02 0.111E+03 0.329E+02   0.166E+00 -.289E+00 -.103E+00   -.917E-02 0.233E-02 -.122E-01
   0.113E+03 -.149E+03 -.353E+02   -.112E+03 0.148E+03 0.352E+02   -.305E+00 0.351E+00 0.121E+00   -.631E-02 0.158E-01 -.711E-02
   -.927E+01 0.292E+02 0.320E+02   0.926E+01 -.291E+02 -.319E+02   0.178E-01 -.364E-01 -.158E+00   -.110E-01 -.215E-01 0.184E-01
   -.257E+00 -.337E+02 0.647E+01   0.328E+00 0.338E+02 -.646E+01   -.670E-01 -.448E-01 0.175E-01   -.653E-02 -.210E-01 -.203E-01
   -.401E+01 -.258E+02 0.125E+02   0.402E+01 0.258E+02 -.122E+02   -.182E-01 0.118E-01 -.232E+00   0.145E-01 0.268E-01 -.807E-02
   0.429E+01 -.209E+01 -.108E+03   -.425E+01 0.202E+01 0.106E+03   -.197E-01 0.602E-01 0.223E+01   -.197E-01 0.320E-01 0.827E-02
   -.694E-01 -.742E+00 0.468E+00   -.106E-11 -.154E-11 -.298E-12   0.502E-01 0.807E+00 -.453E+00   0.191E-01 -.596E-01 -.112E-01

 POSITION                                       TOTAL-FORCE (eV/Angst)
      3.00544      9.02975      0.01531        -0.000576      0.006191      0.002000
      9.02258      3.10633      3.05561        -0.001721      0.033197      0.005578
      3.01989      6.02414      9.02681         0.001026      0.002777      0.003142
      9.03152      0.03806      9.09607         0.000016     -0.014003      0.011752
      0.04652      0.01321      0.01592        -0.021047     -0.004356      0.025479
      1.51439      1.50850      1.52749         0.006786      0.005364     -0.009977
      0.08215     12.05761      3.01814         0.044832      0.039767     -0.000316
      1.49519      1.51530      4.50025         0.006713     -0.009979      0.009991
     12.02069      0.00621      6.00208        -0.034209     -0.019478     -0.027088
      1.42318      1.57642      7.42463        -0.006013     -0.006185     -0.001879
     11.98293      0.00666      9.05071         0.002420     -0.002524      0.001819
      1.45478      1.55376     10.60581        -0.007268      0.000558     -0.001913
      0.00471      3.03306      0.02230         0.000120      0.004975     -0.005871
      1.51902      4.53992      1.48694         0.003030      0.009845      0.004474
     12.03908      3.00635      3.02501         0.013110      0.020183      0.000793
      1.49218      4.52468      4.49107         0.010861      0.003435     -0.003539
     12.01782      3.00779      5.99510         0.007164     -0.006938      0.005051
      1.47271      4.49800      7.48958         0.005419     -0.005280      0.003751
     12.04228      3.02561      9.02994        -0.001631     -0.003756      0.002938
      1.48178      4.50844     10.56999        -0.000164     -0.002977     -0.000447
      0.00880      6.05734     12.04236         0.005063      0.003744     -0.009231
      1.53748      7.54821      1.47856         0.006055      0.016877     -0.002180
     12.03136      6.07861      3.01990         0.016230      0.003397      0.002201
      1.50903      7.52398      4.48168         0.002834      0.014721     -0.000056
      0.01064      6.02030      5.98791         0.013368      0.009962      0.010983
      1.50094      7.55071      7.48737         0.000365     -0.008998      0.004871
      0.01976      6.01528      9.04156         0.008908     -0.000168      0.001830
      1.51453      7.57949     10.60091         0.002476      0.003174      0.002045
      0.01472      9.02058     12.05005        -0.007362      0.034286      0.010536
      1.57196     10.53104      1.49781         0.000129     -0.002096      0.000103
      0.02712      9.07556      3.02859        -0.048954      0.007973     -0.009778
      1.51951     10.56547      4.50050        -0.029151     -0.006290      0.004880
      0.00896      9.05689      6.00520        -0.029970      0.035508     -0.021759
      1.41780     10.47457      7.44035        -0.016148     -0.010441     -0.016396
      0.00015      9.03863      9.03653        -0.001343      0.012859     -0.004683
      1.49649     10.46620     10.61785        -0.004135      0.002865      0.004227
      3.00940      0.01680      0.02939        -0.001840      0.003722     -0.015266
      4.50935      1.50949      1.52348        -0.009565      0.003481     -0.009423
      3.01673      0.02559      3.02153        -0.000467     -0.016536      0.009699
      4.53384      1.51491      4.49349        -0.008370     -0.011907      0.011259
      3.01551      0.00656      5.94414        -0.000491     -0.016337      0.009540
      4.60071      1.56969      7.42258         0.005913     -0.003967     -0.002507
      4.55843      1.55693     10.60140         0.004813     -0.001175     -0.003695
      3.01177      3.00921      0.01139        -0.000159     -0.001062      0.002699
      4.51778      4.53516      1.48961        -0.003913      0.008544      0.004781
      3.01558      3.03390      2.98801         0.000543      0.001601     -0.002485
      4.53873      4.52397      4.48531        -0.007938      0.002867     -0.004251
      3.01498      3.02860      5.98588         0.000420     -0.009698     -0.000174
      4.55917      4.49966      7.48575        -0.003981     -0.005309      0.003799
      3.01264      3.06433      9.02991         0.000040     -0.010969      0.004511
      4.54568      4.50753     10.57532         0.000950     -0.003139      0.000298
      3.01339      6.01120     12.04519         0.000140     -0.002274      0.001323
      4.48178      7.53746      1.47949        -0.006783      0.015949     -0.000136
      3.01254      6.01549      2.98481         0.001292      0.009175      0.002386
      4.52049      7.51398      4.47638        -0.002897      0.016281     -0.000136
      3.01581      6.01929      5.99995         0.001510     -0.005896      0.009611
      4.55715      7.54725      7.48976         0.001469     -0.009407      0.003431
      4.51407      7.57432     10.60565        -0.001097      0.003889      0.003516
      4.43789     10.53182      1.49699        -0.002441     -0.001985      0.001005
      3.01108      9.01112      3.02071        -0.000092      0.012287      0.008250
[...]
      9.01554      6.04399      5.98628         0.002075      0.002006      0.012956
      9.01478      6.00715      9.02879         0.000024      0.012194     -0.003097
     10.53441      7.50369     10.55391        -0.000969      0.022432     -0.014795
      9.02633      9.02165      0.00696        -0.000664     -0.009547      0.032339
     10.78702     10.46601      1.51744        -0.051539      0.013501      0.108025
      9.02610      9.32290      2.99622        -0.000277     -0.898480     -0.041607
     10.56711     10.65283      4.56548        -0.166208      0.080733     -0.144476
      9.01851      9.10193      6.01138        -0.000887      0.017509     -0.041824
     10.53947     10.55476      7.53279         0.001527      0.000170     -0.023047
      9.01938      9.03056      9.06321        -0.000509      0.017821     -0.000144
     10.61554     10.45469     10.54887         0.007444      0.009289      0.015452
     10.51922      4.56977      1.53312        -0.004191      0.018150     -0.000483
     10.52596      7.52171      7.52138        -0.002432      0.017307      0.005674
      3.00502     12.04672      8.97749        -0.001847     -0.004632     -0.008102
      9.00964     12.04318      0.19667         0.000878      0.022511      0.045368
    total drift:                               -0.000010      0.005417      0.004001

  FREE ENERGIE OF THE ION-ELECTRON SYSTEM (eV)
  free  energy   TOTEN  =     -1138.77479125 eV

  energy  without entropy=    -1138.67423867  energy(sigma->0) =    -1138.74127372