 vasp.6.4.2 20Jul23 (build Sep 20 2024 16:56:05) complex
 executed on              LinuxNV date 2025.02.03  22:43:28
 OpenACC runtime initialized ...    4 GPUs detected

 INCAR:
   PREC = Accurate
   ENCUT = 520
   EDIFF = 1e-06
   ISMEAR = 1
   SIGMA = 0.2
   NSW = 0
   IBRION = -1
   LWAVE = .FALSE.
   LCHARG = .TRUE.
   LREAL = .FALSE.
   ALGO = Normal

 POTCAR:    PAW_PBE Cr_pv 02Aug2007
 POTCAR:    PAW_PBE Ti_pv 07Sep2000
 POTCAR:    PAW_PBE V_pv 07Sep2000
 POTCAR:    PAW_PBE W_sv 04Sep2015
 POTCAR:    PAW_PBE Zr_sv 04Jan2005
 POTCAR:    PAW_PBE Cr_pv 02Aug2007
   VRHFIN =Cr : p6d5s1

   TITEL  = PAW_PBE Cr_pv 02Aug2007
   POMASS =   51.996; ZVAL   =   12.000    mass and valenz
   ENMAX  =  265.681; ENMIN  =  199.261 eV

   TITEL  = PAW_PBE Ti_pv 07Sep2000
   POMASS =   47.880; ZVAL   =   10.000    mass and valenz
   ENMAX  =  222.335; ENMIN  =  166.751 eV

   TITEL  = PAW_PBE V_pv 07Sep2000
   POMASS =   50.941; ZVAL   =   11.000    mass and valenz
   ENMAX  =  263.673; ENMIN  =  197.755 eV

   TITEL  = PAW_PBE W_sv 04Sep2015
   POMASS =  183.850; ZVAL   =   14.000    mass and valenz
   ENMAX  =  223.057; ENMIN  =  167.293 eV

   TITEL  = PAW_PBE Zr_sv 04Jan2005
   POMASS =   91.224; ZVAL   =   12.000    mass and valenz
   ENMAX  =  229.898; ENMIN  =  172.424 eV

  PAW_PBE Cr_pv 02Aug2007               :
  PAW_PBE Ti_pv 07Sep2000               :
  PAW_PBE V_pv 07Sep2000                :
  PAW_PBE W_sv 04Sep2015                :
  PAW_PBE Zr_sv 04Jan2005               :

 POSCAR: Cr Ti V  W  Zr
  positions in cartesian coordinates
 exchange correlation table for  LEXCH =        8
   RHO(1)=    0.500       N(1)  =     2000
   RHO(2)=  100.500       N(2)  =     4000

 ion  position               nearest neighbor table
   1  0.250  0.749  0.001-  65 2.52  36 2.53  28 2.54  58 2.55  59 2.56  30 2.56  22 2.56  53 2.57
                            90 2.99  29 3.00  60 3.00  52 3.01  37 3.04  64 3.05
   2  0.749  0.250  0.253-  67 2.49  98 2.51  77 2.53 104 2.56  69 2.58  99 2.60  75 2.61 124 2.62
                           111 2.97 105 2.97  76 2.99  15 3.01 103 3.03
   3  0.251  0.501  0.749-  26 2.65  51 2.65  20 2.65  57 2.66  49 2.66  18 2.66  58 2.66  28 2.67
                            50 2.96  64 2.98  88 3.00  27 3.01  52 3.01  56 3.03
   4  0.750  0.005  0.753-  71 2.65 101 2.65 121 2.65  95 2.66 102 2.71  73 2.71  97 2.73 123 2.73
                            72 2.96  11 2.96 107 2.98 100 3.01 127 3.09
   5  0.005  0.000  0.001-  12 2.55   6 2.58  36 2.59  30 2.60 117 2.61 123 2.66 102 2.68  98 2.76
                           127 3.09
   6  0.125  0.124  0.127-  39 2.57   5 2.58  37 2.58  15 2.59  46 2.59  13 2.62   7 2.62  44 2.63

   7  0.002  0.996  0.251-  32 2.55  98 2.55 117 2.60   8 2.61  99 2.61   6 2.62  30 2.62 119 2.63

[...]

  11  0.995  0.001  0.751- 123 2.57 121 2.57 102 2.61 101 2.62  12 2.67  10 2.70  34 2.70  36 2.74
                             4 2.96 126 3.07
  12  0.122  0.129  0.880-  13 2.53   5 2.55  44 2.57  19 2.61  37 2.64  11 2.67  50 2.68 126 2.74
                           102 2.88
  13  0.001  0.251  0.002- 102 2.48  12 2.53  14 2.58  20 2.59 124 2.61   6 2.62 108 2.65  98 2.73

[...]

  26  0.125  0.628  0.621-  33 2.57  62 2.58  64 2.59  35 2.61  56 2.62  25 2.63  27 2.65   3 2.65
                            34 2.92 125 3.02
  27  0.001  0.500  0.750- 108 2.59  20 2.60 115 2.61  18 2.62 125 2.62  26 2.65 106 2.65  28 2.67
                             3 3.01
  28  0.126  0.629  0.880-  29 2.54   1 2.54  21 2.60  52 2.60  64 2.61  35 2.61  27 2.67   3 2.67
                            36 2.88
  29  0.001  0.747  0.001- 117 2.38  36 2.53  28 2.54 123 2.54  22 2.58 115 2.62  30 2.64 110 2.66
                             1 3.00
  30  0.130  0.874  0.124-  37 2.56   1 2.56  31 2.59  60 2.60   5 2.60  39 2.61   7 2.62  29 2.64
                           117 2.85  59 2.89
  31  0.010  0.750  0.252- 117 2.47  24 2.53  32 2.55  30 2.59  22 2.59 112 2.63 119 2.64 110 2.66
                            60 2.90
  32  0.128  0.877  0.373-  41 2.55   7 2.55  31 2.55  39 2.58  62 2.61  60 2.62   9 2.64  33 2.64
                           119 2.92
  33  0.001  0.750  0.498- 119 2.42  34 2.48  26 2.57  24 2.63 125 2.64  32 2.64 121 2.64 112 2.67

  34  0.119  0.870  0.618-  33 2.48   9 2.56  35 2.58  62 2.61  64 2.67  11 2.70  41 2.70 126 2.70
                            26 2.92
  35  0.001  0.749  0.750- 123 2.50  34 2.58  36 2.61  28 2.61  26 2.61 121 2.62 125 2.64 115 2.65

[...]

  56  0.251  0.500  0.497-  55 2.59  24 2.60  16 2.62  26 2.62  47 2.63  49 2.63  18 2.63  57 2.64
                             3 3.03
  57  0.378  0.627  0.621-  94 2.54  96 2.57  62 2.60  64 2.61  86 2.61  88 2.62  56 2.64   3 2.66
                            63 2.91
  58  0.375  0.629  0.880-  90 2.52   1 2.55  52 2.60  64 2.61  96 2.61  82 2.62   3 2.66  88 2.67
                            65 2.88
  59  0.370  0.874  0.124-  37 2.56   1 2.56  60 2.59  92 2.60  66 2.60  39 2.60  68 2.62  90 2.65
                            91 2.84  30 2.89
  60  0.250  0.747  0.250-  24 2.59  22 2.59  53 2.59  59 2.59  55 2.59  30 2.60  61 2.62  32 2.62
                            92 2.89  31 2.90   1 3.00
  61  0.373  0.877  0.373-  41 2.55  92 2.55  68 2.57  39 2.58  62 2.60  60 2.62  70 2.63  94 2.66
                            93 2.91
  62  0.251  0.748  0.496-  26 2.58  63 2.60  57 2.60  61 2.60  32 2.61  34 2.61  24 2.62  55 2.63

  63  0.382  0.869  0.618-  94 2.49  70 2.56  96 2.59  62 2.60  64 2.66  72 2.69  41 2.70 126 2.71
                            57 2.91
  64  0.250  0.748  0.748-  26 2.59  28 2.61  57 2.61  58 2.61  65 2.62  36 2.65  63 2.66  34 2.67
                             3 2.98 126 3.03   1 3.05
  65  0.374  0.867  0.881-   1 2.52  90 2.53  66 2.58  64 2.62  96 2.63  37 2.66 126 2.73  72 2.74
                            58 2.88  97 2.92
  66  0.494  0.000  1.000-  43 2.54  38 2.58  65 2.58  59 2.60  91 2.63  97 2.67  73 2.68  67 2.79
                           127 3.07
  67  0.625  0.129  0.140-  76 2.44   2 2.49  68 2.57 103 2.68  74 2.69 127 2.70  66 2.79  69 2.80

[...]

  87  0.624  0.621  0.623-  88 2.58  86 2.59 120 2.60 114 2.61 113 2.61  94 2.61  96 2.61 122 2.65
                           125 3.01
  88  0.500  0.501  0.749-  89 2.57  87 2.58  81 2.60  49 2.62  57 2.62  51 2.62  79 2.63  58 2.67
                             3 3.00
  89  0.625  0.621  0.875- 109 2.57  88 2.57 116 2.58  82 2.58 114 2.59 122 2.61  96 2.62  90 2.62

[...]

  95  0.625  0.874  0.626- 120 2.55 100 2.57  72 2.59  96 2.60 122 2.62  94 2.63  70 2.63   4 2.66
                            93 2.88
  96  0.501  0.748  0.749-  97 2.50  57 2.57  63 2.59  95 2.60  87 2.61  58 2.61  89 2.62  65 2.63

[...]

 102  0.883  0.138  0.876-  13 2.48  19 2.49 107 2.60  11 2.61 103 2.62   5 2.68   4 2.71 127 2.84
                            12 2.88 108 2.89
 103  0.748  0.252  0.002-  75 2.58 124 2.60  73 2.61 102 2.62  81 2.62 108 2.64  67 2.68  98 2.74
                             2 3.03 127 3.08
 104  0.872  0.371  0.376-   2 2.56  17 2.56 105 2.58 113 2.58 111 2.59  25 2.61  15 2.63  23 2.66
                           124 3.00
 105  0.750  0.247  0.500-  71 2.54 101 2.55 104 2.58  77 2.59 106 2.60  79 2.62  69 2.62  99 2.62
                             2 2.97
 106  0.874  0.373  0.624- 107 2.58  19 2.60  17 2.60 105 2.60 114 2.62  25 2.64 113 2.64  27 2.65
                           125 3.01
 107  0.750  0.252  0.750- 106 2.58  73 2.59  79 2.60 102 2.60 108 2.61  71 2.62  81 2.62 101 2.63
                             4 2.98
 108  0.875  0.378  0.874- 114 2.58  27 2.59 107 2.61  19 2.61  21 2.62 103 2.64 109 2.64  13 2.65
                           102 2.89 124 3.05
 109  0.749  0.502  0.003-  89 2.57 115 2.58  83 2.60  75 2.61  81 2.61 110 2.63 124 2.63 108 2.64

 110  0.869  0.629  0.133- 111 2.60  23 2.60 116 2.62 109 2.63  31 2.66  29 2.66  21 2.73 117 2.80
                           112 2.83  83 2.87 124 3.07
 111  0.749  0.496  0.252-  77 2.56  83 2.57 112 2.57  75 2.57  85 2.58 124 2.59 104 2.59 110 2.60
                             2 2.97
 112  0.868  0.631  0.367- 111 2.57  23 2.62  31 2.63 120 2.63 113 2.64  33 2.67  25 2.74 110 2.83
                            85 2.86 119 2.90 125 3.09
 113  0.749  0.499  0.496-  77 2.58 104 2.58  79 2.61  87 2.61  85 2.61 125 2.62 112 2.64 106 2.64

 114  0.749  0.498  0.750-  81 2.57 108 2.58  79 2.59  89 2.59  87 2.61 125 2.62 106 2.62 115 2.62

 115  0.875  0.621  0.877- 116 2.56  21 2.56 109 2.58  27 2.61  29 2.62 114 2.62 122 2.63  35 2.65
                           125 3.05
 116  0.750  0.747  0.994- 115 2.56  89 2.58  97 2.61 123 2.61 110 2.62  83 2.63  91 2.68 117 2.69
                           122 2.92 127 3.02
 117  0.894  0.860  0.122-  29 2.38  31 2.47 118 2.49   7 2.60   5 2.61 116 2.69 127 2.77 110 2.80
                            30 2.85
 118  0.750  0.927  0.254-  93 2.39 119 2.39 117 2.49  91 2.50 127 3.07
 119  0.886  0.870  0.387- 118 2.39  33 2.42   9 2.51 120 2.60   7 2.63  31 2.64 100 2.64 121 2.88
                           112 2.90  32 2.92
 120  0.749  0.752  0.505-  95 2.55 121 2.59  93 2.59 125 2.60  87 2.60 119 2.60  85 2.62 112 2.63

 121  0.876  0.877  0.626- 100 2.56  11 2.57 120 2.59   9 2.61  35 2.62  33 2.64 122 2.65   4 2.65
                           119 2.88 125 3.06
 122  0.749  0.748  0.752-  97 2.59 123 2.61  89 2.61  95 2.62 115 2.63 125 2.64 121 2.65  87 2.65
                           116 2.92
 123  0.883  0.867  0.874-  35 2.50  29 2.54  11 2.57 122 2.61 116 2.61   5 2.66   4 2.73 127 2.78
                            36 2.91
 124  0.874  0.375  0.127- 111 2.59 103 2.60  23 2.60  13 2.61   2 2.62 109 2.63  15 2.63  21 2.65
                            75 3.00 104 3.00  98 3.01  14 3.04 108 3.05 110 3.07
 125  0.874  0.623  0.624- 120 2.60 114 2.62  27 2.62 113 2.62  25 2.63 122 2.64  33 2.64  35 2.64
                            87 3.01 106 3.01  26 3.02 115 3.05 121 3.06 112 3.09
 126  0.250  0.999  0.746-  34 2.70  63 2.71  65 2.73  42 2.73  36 2.73  10 2.73  43 2.74  12 2.74
                            64 3.03  41 3.05  72 3.06  11 3.07  50 3.09  37 3.11
 127  0.749  0.997  0.009-  98 2.69  67 2.70  91 2.76 117 2.77  97 2.77 123 2.78 102 2.84  73 2.84
                           116 3.02 118 3.07  66 3.07 103 3.08   4 3.09   5 3.09

  LATTYP: Found a triclinic cell.
 ALAT       =    17.0358975283
 B/A-ratio  =     0.7070015846
 C/A-ratio  =     0.7071772766
 COS(alpha) =     0.0000417821
 COS(beta)  =     0.0004596508
 COS(gamma) =     0.7064723174

  Lattice vectors:

 A1 = ( -12.0398988670, -12.0524945360,  -0.0039149010)
 A2 = ( -12.0444057020,   0.0045050720,  -0.0002512580)
 A3 = (  -0.0002534140,  -0.0036608590, -12.0473990590)

Analysis of symmetry for initial positions (statically):
 Subroutine PRICEL returns:
 Original cell was already a primitive cell.

 Routine SETGRP: Setting up the symmetry group for a
 triclinic supercell.

 Subroutine GETGRP returns: Found  1 space group operations
 (whereof  1 operations were pure point group operations)
 out of a pool of  2 trial point group operations.

The static configuration has the point symmetry C_1 .

[...]
     0.000253414  0.003660859 12.047399059    -0.000001741 -0.000025223  0.083005476

  length of vectors
    12.044406547 12.057001007 12.047399618     0.083026115  0.082939403  0.083005480

 FORCES acting on ions
    electron-ion (+dipol)            ewald-force                    non-local-force                 convergence-correction
   -.508E+01 -.170E+02 0.264E+02   0.507E+01 0.167E+02 -.262E+02   0.112E-01 0.203E+00 -.196E+00   0.260E-02 0.423E-02 -.273E-01
   0.198E+02 0.131E+03 -.466E+00   -.200E+02 -.130E+03 0.874E+00   0.139E+00 -.116E+01 -.443E+00   0.252E-03 0.212E-02 0.287E-01
   -.400E+01 0.914E+01 0.198E+02   0.395E+01 -.922E+01 -.198E+02   0.433E-01 0.899E-01 -.345E-01   0.708E-02 -.293E-02 -.262E-01
   0.602E+01 0.739E+01 -.905E+02   -.603E+01 -.757E+01 0.902E+02   0.114E-01 0.179E+00 0.320E+00   -.379E-02 0.542E-03 -.208E-01
   0.132E+03 -.198E+02 0.198E+02   -.132E+03 0.199E+02 -.196E+02   0.273E+00 -.113E+00 -.166E+00   -.194E-01 -.951E-03 -.234E-01
   0.359E+02 0.929E+01 0.231E+02   -.358E+02 -.908E+01 -.230E+02   -.487E-01 -.217E+00 -.790E-01   -.844E-02 0.555E-02 0.243E-02
   0.119E+03 0.172E+02 0.271E+02   -.118E+03 -.173E+02 -.270E+02   -.716E+00 0.765E-01 -.138E+00   -.212E-01 0.633E-02 0.232E-01
   0.105E+02 0.403E+01 -.203E+02   -.103E+02 -.402E+01 0.203E+02   -.204E+00 -.248E-01 -.243E-01   -.735E-02 0.623E-02 0.352E-01
   0.130E+02 -.434E+01 -.207E+02   -.131E+02 0.470E+01 0.205E+02   0.124E+00 -.374E+00 0.202E+00   -.148E-01 0.145E-02 0.264E-01
   -.659E+02 0.572E+02 -.845E+02   0.655E+02 -.565E+02 0.842E+02   0.373E+00 -.761E+00 0.325E+00   -.644E-02 0.435E-02 0.253E-02
   -.142E+02 -.772E+01 -.281E+02   0.146E+02 0.789E+01 0.281E+02   -.365E+00 -.176E+00 0.761E-01   -.143E-01 0.154E-02 -.255E-01
   -.334E+02 0.597E+02 0.817E+02   0.329E+02 -.589E+02 -.813E+02   0.544E+00 -.812E+00 -.372E+00   -.865E-02 0.425E-02 -.375E-01
   0.189E+02 0.661E+02 0.130E+02   -.186E+02 -.660E+02 -.126E+02   -.249E+00 -.528E-01 -.430E+00   -.213E-01 0.708E-03 -.185E-01
   -.696E+00 0.913E+01 -.108E+02   0.594E+00 -.909E+01 0.110E+02   0.116E+00 -.376E-01 -.259E+00   -.123E-01 -.453E-02 0.659E-02
   -.204E+02 0.287E+02 -.204E+02   0.210E+02 -.285E+02 0.207E+02   -.534E+00 -.258E+00 -.353E+00   -.195E-01 0.415E-02 0.228E-01
   -.928E+01 -.255E+01 -.144E+02   0.935E+01 0.270E+01 0.144E+02   -.518E-01 -.152E+00 -.121E-01   -.741E-02 -.197E-02 0.320E-01
   -.166E+01 0.133E+02 0.284E+01   0.145E+01 -.133E+02 -.340E+01   0.242E+00 -.446E-01 0.550E+00   -.174E-01 -.733E-03 0.216E-01
   -.495E+02 -.174E+02 -.335E+02   0.493E+02 0.171E+02 0.331E+02   0.202E+00 0.236E+00 0.411E+00   -.241E-02 -.824E-02 -.992E-03
   -.259E+02 0.387E+02 0.221E+01   0.260E+02 -.384E+02 -.238E+01   -.868E-01 -.290E+00 0.199E+00   -.168E-01 -.231E-02 -.249E-01
   -.355E+02 -.202E+01 0.560E+02   0.353E+02 0.171E+01 -.557E+02   0.214E+00 0.325E+00 -.307E+00   -.956E-02 -.707E-02 -.372E-01
   0.125E+02 -.280E+02 0.626E+01   -.125E+02 0.282E+02 -.610E+01   0.450E-01 -.175E+00 -.135E+00   -.231E-01 -.173E-02 -.209E-01
   0.600E+02 0.209E+02 -.307E+02   -.595E+02 -.210E+02 0.308E+02   -.447E+00 0.155E+00 -.769E-01   -.145E-01 -.474E-02 -.332E-03
   0.110E+02 -.512E+02 -.245E+02   -.107E+02 0.514E+02 0.247E+02   -.278E+00 -.204E+00 -.226E+00   -.195E-01 -.687E-02 0.292E-01
   0.230E+02 0.707E+00 -.279E+02   -.225E+02 -.930E+00 0.282E+02   -.533E+00 0.222E+00 -.347E+00   -.983E-02 -.747E-02 0.372E-01
   -.720E+01 -.112E+02 0.209E+02   0.710E+01 0.112E+02 -.213E+02   0.111E+00 0.578E-02 0.426E+00   -.158E-01 -.256E-02 0.121E-01
   -.470E+02 0.333E+02 -.302E+02   0.468E+02 -.334E+02 0.299E+02   0.194E+00 0.734E-01 0.331E+00   -.144E-02 -.353E-03 -.435E-02
   -.641E+02 0.126E+02 -.486E+01   0.646E+02 -.128E+02 0.509E+01   -.483E+00 0.136E+00 -.202E+00   -.175E-01 -.655E-02 -.195E-01
   0.206E+01 0.499E+02 0.862E+02   -.201E+01 -.499E+02 -.861E+02   -.318E-01 0.550E-01 -.300E-01   -.125E-01 0.117E-02 -.320E-01
   0.883E+02 -.655E+01 -.139E+02   -.879E+02 0.533E+01 0.134E+02   -.460E+00 0.122E+01 0.577E+00   -.228E-01 0.230E-02 -.282E-01
   0.617E+02 -.389E+02 -.132E+02   -.619E+02 0.388E+02 0.132E+02   0.156E+00 0.146E+00 0.449E-01   -.102E-01 0.426E-02 -.397E-02
   0.164E+03 0.112E+01 -.122E+02   -.163E+03 -.168E+01 0.123E+02   -.729E+00 0.532E+00 -.201E+00   -.189E-01 -.397E-02 0.282E-01
   0.213E+02 0.194E+01 -.232E+02   -.213E+02 -.211E+01 0.235E+02   0.178E-01 0.175E+00 -.351E+00   -.668E-02 0.302E-02 0.409E-01
   0.173E+02 0.106E+02 0.381E+02   -.167E+02 -.116E+02 -.381E+02   -.596E+00 0.977E+00 -.790E-03   -.143E-01 0.168E-02 0.191E-01
   -.562E+02 -.712E+02 -.668E+02   0.559E+02 0.706E+02 0.663E+02   0.312E+00 0.594E+00 0.458E+00   -.838E-02 0.410E-02 -.209E-02
   -.183E+02 -.433E+02 -.835E+01   0.186E+02 0.429E+02 0.841E+01   -.253E+00 0.347E+00 -.400E-01   -.165E-01 0.701E-02 -.180E-01
   0.101E+02 -.106E+03 0.996E+02   -.105E+02 0.105E+03 -.991E+02   0.471E+00 0.607E+00 -.496E+00   -.153E-01 0.137E-02 -.329E-01
   -.393E+01 -.370E+02 0.955E+02   0.393E+01 0.375E+02 -.958E+02   -.112E-01 -.509E+00 0.358E+00   0.843E-02 0.503E-02 -.199E-01
   -.445E+02 0.979E+01 0.225E+02   0.445E+02 -.955E+01 -.224E+02   0.321E-01 -.242E+00 -.951E-01   0.132E-01 -.128E-02 0.446E-03
   -.455E+01 -.418E+01 -.554E+01   0.452E+01 0.415E+01 0.544E+01   0.257E-01 0.203E-01 0.809E-01   0.642E-02 0.435E-02 0.219E-01
   -.201E+02 0.449E+01 -.201E+02   0.199E+02 -.448E+01 0.201E+02   0.180E+00 -.229E-01 -.298E-01   0.120E-01 0.607E-02 0.350E-01
   -.418E+01 -.557E+01 -.112E+03   0.418E+01 0.579E+01 0.113E+03   -.804E-02 -.238E+00 -.591E+00   0.292E-02 0.281E-02 0.280E-01
   0.592E+02 0.549E+02 -.838E+02   -.588E+02 -.541E+02 0.834E+02   -.412E+00 -.786E+00 0.356E+00   0.119E-01 0.799E-02 0.368E-02
   0.248E+02 0.602E+02 0.809E+02   -.242E+02 -.593E+02 -.805E+02   -.615E+00 -.875E+00 -.390E+00   0.153E-01 0.118E-02 -.369E-01
   -.318E+01 0.238E+02 0.386E+02   0.315E+01 -.238E+02 -.383E+02   0.273E-01 -.135E-01 -.330E+00   0.361E-02 -.478E-02 -.209E-01
   -.141E+02 0.839E+01 -.117E+02   0.142E+02 -.833E+01 0.119E+02   -.307E-01 -.581E-01 -.283E+00   0.126E-01 -.532E-02 0.619E-02
   -.378E+01 -.855E+00 -.132E+02   0.375E+01 0.778E+00 0.133E+02   0.343E-01 0.686E-01 -.111E+00   0.347E-02 0.585E-03 0.252E-01
   0.793E+00 -.351E+01 -.154E+02   -.842E+00 0.368E+01 0.154E+02   0.373E-01 -.174E+00 -.313E-01   0.100E-01 -.382E-02 0.363E-01
   -.488E+01 0.103E+02 -.408E+02   0.486E+01 -.103E+02 0.405E+02   0.117E-01 -.300E-01 0.233E+00   0.595E-02 0.117E-02 0.259E-01
   0.429E+02 -.178E+02 -.335E+02   -.427E+02 0.176E+02 0.330E+02   -.190E+00 0.223E+00 0.425E+00   0.133E-01 -.608E-02 0.111E-02
   -.396E+01 0.550E+02 0.132E+02   0.396E+01 -.550E+02 -.132E+02   -.739E-03 -.166E-01 -.130E-01   0.625E-02 -.308E-02 -.298E-01
   0.272E+02 -.534E+01 0.578E+02   -.270E+02 0.505E+01 -.575E+02   -.226E+00 0.298E+00 -.295E+00   0.159E-01 -.512E-02 -.428E-01
   -.438E+01 0.317E+02 0.504E+02   0.432E+01 -.320E+02 -.505E+02   0.592E-01 0.240E+00 0.157E+00   0.140E-02 -.417E-02 -.229E-01
   -.668E+02 0.197E+02 -.301E+02   0.664E+02 -.199E+02 0.302E+02   0.438E+00 0.121E+00 -.774E-01   0.173E-01 -.186E-02 0.201E-03
   -.417E+01 0.112E+02 -.248E+02   0.413E+01 -.111E+02 0.249E+02   0.441E-01 -.170E-01 -.124E+00   0.190E-04 -.698E-02 0.306E-01
   -.289E+02 -.184E+00 -.292E+02   0.284E+02 -.419E-01 0.295E+02   0.523E+00 0.225E+00 -.350E+00   0.110E-01 -.652E-02 0.386E-01
   -.556E+01 0.751E+01 -.507E+02   0.552E+01 -.764E+01 0.509E+02   0.292E-01 0.139E+00 -.252E+00   0.488E-02 -.479E-02 0.215E-01
   0.353E+02 0.327E+02 -.285E+02   -.354E+02 -.328E+02 0.281E+02   0.443E-02 0.120E+00 0.324E+00   0.135E-01 -.399E-02 0.136E-02
   -.101E+02 0.517E+02 0.865E+02   0.100E+02 -.517E+02 -.864E+02   0.548E-01 0.760E-01 -.770E-02   0.201E-01 -.834E-03 -.395E-01
   -.713E+02 -.390E+02 -.138E+02   0.715E+02 0.388E+02 0.137E+02   -.224E+00 0.159E+00 0.280E-01   0.208E-01 0.889E-02 -.299E-02
   -.460E+01 -.692E+01 -.404E+02   0.459E+01 0.704E+01 0.408E+02   0.132E-01 -.125E+00 -.380E+00   0.312E-02 0.166E-02 0.282E-01
[...]
   0.194E+02 0.837E+01 -.156E+02   -.195E+02 -.844E+01 0.158E+02   0.143E+00 0.865E-01 -.201E+00   -.112E-01 -.595E-02 -.174E-01
   0.137E+02 -.383E+02 -.279E+02   -.136E+02 0.384E+02 0.274E+02   -.207E-01 -.146E+00 0.539E+00   -.218E-01 0.144E-02 -.246E-01
   0.721E+01 -.111E+03 -.141E+03   -.724E+01 0.111E+03 0.140E+03   0.336E-01 0.218E+00 0.646E+00   -.480E-02 0.305E-02 -.298E-01
   0.234E+03 -.283E+02 -.649E+02   -.233E+03 0.289E+02 0.643E+02   -.694E+00 -.672E+00 0.557E+00   -.278E-01 0.386E-02 -.319E-02
   0.821E+01 0.480E+02 0.934E+02   -.823E+01 -.424E+02 -.945E+02   0.274E-01 -.474E+01 0.117E+01   -.627E-02 0.396E-02 0.219E-01
   0.144E+03 0.496E+02 0.134E+03   -.143E+03 -.491E+02 -.133E+03   -.105E+01 -.574E+00 -.772E+00   -.267E-01 0.322E-02 0.282E-01
   0.204E+02 -.326E+02 0.149E+03   -.206E+02 0.325E+02 -.148E+03   0.192E+00 0.544E-01 -.585E+00   -.387E-02 -.486E-03 0.171E-01
   0.403E+02 -.528E+02 -.460E+02   -.399E+02 0.524E+02 0.459E+02   -.399E+00 0.356E+00 0.913E-01   -.114E-01 0.339E-02 -.355E-02
   0.204E+02 -.948E+02 -.337E+02   -.206E+02 0.951E+02 0.338E+02   0.180E+00 -.242E+00 -.747E-01   -.847E-02 -.134E-03 -.148E-01
   0.111E+03 -.125E+03 -.358E+02   -.110E+03 0.124E+03 0.357E+02   -.452E+00 0.480E+00 0.103E+00   -.148E-01 -.487E-02 -.251E-01
   -.145E+02 -.135E+02 0.353E+02   0.146E+02 0.132E+02 -.352E+02   -.166E-01 0.188E+00 -.125E+00   -.213E-01 -.415E-02 0.251E-02
   0.816E+00 -.280E+02 0.271E+02   -.750E+00 0.280E+02 -.268E+02   -.384E-01 0.503E-01 -.286E+00   -.254E-01 -.245E-02 -.510E-02
   -.438E+01 -.266E+02 0.100E+02   0.439E+01 0.266E+02 -.975E+01   -.178E-01 0.540E-03 -.210E+00   0.496E-02 0.484E-02 -.298E-01
   0.490E+01 0.185E+02 -.111E+02   -.486E+01 -.189E+02 0.106E+02   -.315E-01 0.431E+00 0.525E+00   -.587E-02 -.518E-02 -.170E-01
   -.286E+00 0.228E+01 -.235E+00   -.938E-12 -.711E-12 -.439E-12   0.288E+00 -.227E+01 0.232E+00   0.220E-03 0.604E-03 0.345E-02

 POSITION                                       TOTAL-FORCE (eV/Angst)
      3.00511      9.03027      0.01154         0.000246      0.005290     -0.001962
      9.02429      3.01055      3.05328        -0.000258     -0.075393     -0.005602
      3.01906      6.03763      9.02586        -0.000479      0.003179     -0.001444
      9.03065      0.05655      9.07224        -0.002172      0.002887     -0.021207
      0.05866      0.00307      0.01108        -0.010351     -0.013291      0.018093
      1.50743      1.49955      1.53041         0.002529     -0.003890     -0.000123
      0.01537     12.00520      3.02422        -0.039799     -0.016768      0.010079
      1.49438      1.51563      4.49588         0.006014     -0.012869     -0.000090
      0.00930      0.02249      6.02725        -0.005067     -0.010125     -0.010909
      1.42939      1.58442      7.43190         0.002729     -0.005138      0.002098
     11.98763      0.01281      9.04767         0.006741     -0.002496     -0.004345
      1.46324      1.56398     10.60597        -0.001172      0.002041      0.003248
      0.00544      3.02275      0.02605         0.003174     -0.000944     -0.004393
      1.51677      4.52703      1.48456         0.000521     -0.003950      0.003907
     12.03698      2.96326      3.02962         0.012265     -0.014379      0.003697
      1.48602      4.51433      4.49410         0.005501     -0.008811      0.003487
     12.01372      3.00519      5.99296         0.010417     -0.005740      0.006411
      1.47328      4.51046      7.49129         0.002423      0.002893      0.003140
      0.00435      3.04590      9.02895         0.006408      0.005665     -0.000073
      1.48152      4.52424     10.56949        -0.000765      0.006238      0.002722
      0.00694      6.05049      0.00348         0.003922      0.000305      0.001742
      1.53093      7.53206      1.48055         0.006994     -0.005481      0.004138
     12.01726      6.04963      3.01829         0.007632     -0.022686      0.000932
      1.50324      7.50435      4.48069        -0.000090     -0.008721     -0.000322
      0.00058      6.01279      5.98577        -0.001620      0.000190      0.008425
      1.50249      7.56796      7.48744        -0.005135      0.013944      0.001991
      0.01153      6.02964      9.04098         0.000615      0.011788      0.004100
      1.51683      7.58816     10.60026         0.003757      0.011473      0.005878
      0.00868      9.00909      0.01195        -0.014185      0.015398      0.020757
      1.56175     10.53893      1.49694        -0.008869      0.007171      0.004999
      0.11262      9.04413      3.03688         0.032351     -0.027066     -0.002595
      1.53693     10.57936      4.49610        -0.007834      0.006748     -0.005762
      0.01064      9.04179      6.00513        -0.032078      0.012125     -0.023060
      1.42448     10.48720      7.44583         0.000816      0.004092     -0.005549
      0.00304      9.03787      9.04151         0.008239      0.012056      0.003508
      1.49939     10.47040     10.62471         0.005898      0.005065      0.012345
      3.00969      0.01797      0.04347        -0.001452     -0.000168      0.004737
      4.51679      1.50198      1.52470        -0.007077     -0.004274     -0.001096
      3.01617      0.03474      3.00668        -0.002191     -0.004224     -0.001054
      4.53542      1.51637      4.48660        -0.007639     -0.012956     -0.001080
      3.01572      0.01606      5.93349        -0.001596     -0.015032      0.000779
      4.59460      1.57603      7.42851        -0.002493     -0.002776      0.001570
      4.55138      1.56994     10.60451         0.002372      0.003020      0.006366
      3.01173      3.01919      0.00363        -0.000010      0.007295     -0.003148
      4.52127      4.52233      1.48553        -0.000563     -0.004195      0.001952
      3.01493      3.02421      2.98909        -0.000017     -0.007771      0.000013
      4.54390      4.51365      4.48836        -0.002399     -0.007964      0.002728
      3.01471      3.03880      5.99055         0.000245     -0.004452      0.007059
      4.55904      4.51191      7.48603        -0.000970      0.004010      0.003532
      3.01223      3.07817      9.02822        -0.000227      0.002186      0.003619
      4.54550      4.52326     10.57354         0.000621      0.006916      0.001421
      3.01324      6.02111     12.03960         0.001093      0.006343     -0.005170
      4.48815      7.52279      1.47932        -0.005117     -0.003793      0.003370
      3.01172      6.00392      2.98636         0.001306     -0.002198      0.006457
      4.52808      7.49217      4.47495         0.001286     -0.007644      0.000112
      3.01566      6.03032      5.99279         0.001653      0.005689      0.008440
      4.55521      7.56428      7.48877         0.006137      0.013618     -0.000293
      4.50935      7.58121     10.60268        -0.005021      0.011929      0.004285
      4.44806     10.53638      1.49305         0.005927      0.004812      0.004870
      3.01115      9.00302      3.00983         0.000531     -0.000900     -0.001936
[...]
      9.01516      6.02013      5.97417         0.002047     -0.021501      0.003965
      9.01563      6.00193      9.03197        -0.000414      0.003758      0.010872
     10.53451      7.48733     10.56897        -0.002475      0.001204      0.005302
      9.02668      9.00292     11.98038        -0.000472     -0.026571     -0.034441
     10.76244     10.35990      1.47672        -0.075701     -0.054570      0.042989
      9.02547     11.16944      3.06134        -0.001273      0.916242      0.042341
     10.66851     10.48904      4.66191        -0.071656     -0.078652     -0.047419
      9.01661      9.06285      6.08270         0.000504     -0.031184      0.033931
     10.54241     10.56741      7.54234         0.000981      0.013493     -0.005239
      9.02087      9.02209      9.06427         0.000914      0.004354      0.006764
     10.63192     10.45767     10.52815         0.014616      0.008360     -0.012454
     10.52557      4.51686      1.53131         0.001626     -0.030202     -0.000858
     10.52613      7.50747      7.51676         0.002069     -0.000574      0.007442
      3.00637     12.04762      8.98669         0.001242      0.005095      0.006527
      9.01124     12.01653      0.11334         0.003352     -0.008869     -0.029897
    total drift:                                0.002215      0.006603      0.000413

  FREE ENERGIE OF THE ION-ELECTRON SYSTEM (eV)
  free  energy   TOTEN  =     -1137.84583901 eV

  energy  without entropy=    -1137.76583804  energy(sigma->0) =    -1137.81917202