 vasp.6.4.2 20Jul23 (build Sep 20 2024 16:56:05) complex
 executed on              LinuxNV date 2025.02.07  19:59:48
 OpenACC runtime initialized ...    4 GPUs detected

 INCAR:
   PREC = Accurate
   ENCUT = 520
   EDIFF = 1e-06
   ISMEAR = 1
   SIGMA = 0.2
   NSW = 0
   IBRION = -1
   LWAVE = .FALSE.
   LCHARG = .TRUE.
   LREAL = .FALSE.
   ALGO = Normal

 POTCAR:    PAW_PBE Cr_pv 02Aug2007
 POTCAR:    PAW_PBE Ti_pv 07Sep2000
 POTCAR:    PAW_PBE V_pv 07Sep2000
 POTCAR:    PAW_PBE W_sv 04Sep2015
 POTCAR:    PAW_PBE Zr_sv 04Jan2005
 POTCAR:    PAW_PBE Cr_pv 02Aug2007
   VRHFIN =Cr : p6d5s1

   TITEL  = PAW_PBE Cr_pv 02Aug2007
   POMASS =   51.996; ZVAL   =   12.000    mass and valenz
   ENMAX  =  265.681; ENMIN  =  199.261 eV

   TITEL  = PAW_PBE Ti_pv 07Sep2000
   POMASS =   47.880; ZVAL   =   10.000    mass and valenz
   ENMAX  =  222.335; ENMIN  =  166.751 eV

   TITEL  = PAW_PBE V_pv 07Sep2000
   POMASS =   50.941; ZVAL   =   11.000    mass and valenz
   ENMAX  =  263.673; ENMIN  =  197.755 eV

   TITEL  = PAW_PBE W_sv 04Sep2015
   POMASS =  183.850; ZVAL   =   14.000    mass and valenz
   ENMAX  =  223.057; ENMIN  =  167.293 eV

   TITEL  = PAW_PBE Zr_sv 04Jan2005
   POMASS =   91.224; ZVAL   =   12.000    mass and valenz
   ENMAX  =  229.898; ENMIN  =  172.424 eV

  PAW_PBE Cr_pv 02Aug2007               :
  PAW_PBE Ti_pv 07Sep2000               :
  PAW_PBE V_pv 07Sep2000                :
  PAW_PBE W_sv 04Sep2015                :
  PAW_PBE Zr_sv 04Jan2005               :

 POSCAR: Cr Ti V  W  Zr
  positions in direct lattice
  velocities in cartesian coordinates
 exchange correlation table for  LEXCH =        8
   RHO(1)=    0.500       N(1)  =     2000
   RHO(2)=  100.500       N(2)  =     4000

 ion  position               nearest neighbor table
   1  0.251  0.752  0.998-  59 2.55  30 2.55  36 2.56  28 2.57  22 2.59 124 2.60  53 2.60  29 2.96
                            60 3.00  52 3.02 127 3.22
   2  0.249  0.747  0.497-  61 2.51  24 2.52  67 2.54  34 2.56  55 2.56  32 2.57  26 2.58  57 2.58
                            62 2.98  56 2.99  40 3.02  60 3.03  33 3.04  89 3.04
   3  0.750  0.496  0.752- 106 2.40 108 2.50  85 2.54  83 2.57  77 2.59 113 2.60  75 2.61 114 2.63
                           109 3.00 112 3.00  84 3.01 121 3.02  27 3.03
   4  0.993  0.994  0.501- 118 2.62 120 2.63  34 2.66  32 2.69  96 2.73  12 2.76  13 2.78  98 2.80
                            33 2.97 126 3.01  14 3.02  11 3.04  40 3.04
   5  0.998  0.252  0.002-  15 2.65 100 2.66  10 2.66  20 2.66 102 2.66 108 2.67  94 2.67  16 2.68
                            17 2.93  19 2.94 101 2.98  21 3.00  44 3.02
   6  0.128  0.379  0.371-  23 2.59  54 2.63  56 2.65  46 2.65  25 2.73  48 2.73  17 2.73 126 2.84
                            16 2.93  47 2.97  24 2.99
   7  0.626  0.130  0.128-  63 2.58 103 2.63 101 2.63  72 2.65  70 2.67  64 2.68  95 2.68  93 2.70
                            71 2.93  94 2.96
   8  0.877  0.627  0.124-  23 2.60 115 2.63  21 2.65  31 2.65 117 2.68  29 2.68 109 2.69 110 2.74
                           102 2.97 116 2.98  79 3.01  22 3.02 114 3.02
   9  0.002  1.000  1.000-  15 2.59  30 2.60  10 2.60 122 2.61 116 2.61  36 2.63 100 2.63  94 2.65

  10  0.126  0.122  0.126-  37 2.55  39 2.56  46 2.58   9 2.60  17 2.61  11 2.63  44 2.64   5 2.66
                            12 2.87
  11  0.998  0.997  0.250-  12 2.54 116 2.55  94 2.61  10 2.63  32 2.64  96 2.66 118 2.67  30 2.67
                             4 3.04
  12  0.126  0.118  0.364-  39 2.52  11 2.54  46 2.60  40 2.61  17 2.64   4 2.76  48 2.77 126 2.81
                            10 2.87 123 2.98
  13  0.132  0.121  0.634-  42 2.31  50 2.55  40 2.61  14 2.62  48 2.62  19 2.71 126 2.72   4 2.78

  14  0.998  0.998  0.751- 122 2.59  13 2.62  36 2.63  98 2.64 100 2.64  15 2.65 120 2.66  34 2.71
                            42 2.88   4 3.02
  15  0.125  0.125  0.877-  37 2.53  42 2.55   9 2.59  19 2.60  50 2.62  44 2.62  14 2.65   5 2.65

  16  0.127  0.381  0.129-  54 2.57  23 2.58  21 2.60  52 2.60  46 2.61  44 2.63  17 2.67   5 2.68
                             6 2.93
  17  0.995  0.247  0.244-  94 2.56 102 2.60  10 2.61  12 2.64  16 2.67  96 2.72 104 2.72   6 2.73
                             5 2.93 126 3.16
  18  0.128  0.379  0.633-  58 2.53  27 2.56  50 2.57  56 2.61  25 2.68  48 2.69  19 2.71 126 2.79
                            20 2.92
  19  0.996  0.249  0.759- 100 2.58 108 2.59  15 2.60  20 2.62 106 2.69  18 2.71  13 2.71  98 2.76
                             5 2.94 126 3.06
  20  0.125  0.380  0.874-  21 2.55  27 2.56  58 2.58  50 2.60  52 2.61  19 2.62  44 2.63   5 2.66
                            18 2.92
  21  0.004  0.500  0.998-  20 2.55 114 2.59  16 2.60  28 2.61  22 2.62   8 2.65 108 2.66 102 2.67
                             5 3.00
  22  0.127  0.629  0.123-  60 2.55   1 2.59  29 2.60  54 2.61  52 2.62  31 2.62  21 2.62  23 2.64
                             8 3.02
  23  0.001  0.504  0.250-  16 2.58   6 2.59 111 2.60   8 2.60 102 2.60  24 2.62  22 2.64 104 2.66

  24  0.127  0.627  0.377-   2 2.52  31 2.60  33 2.61  23 2.62  60 2.62  54 2.65  56 2.66  25 2.67
                            32 2.92   6 2.99
  25  0.995  0.504  0.505- 113 2.52 111 2.56  26 2.57  24 2.67 104 2.67  18 2.68 106 2.71   6 2.73
                           126 3.15
  26  0.126  0.625  0.622-  25 2.57  62 2.57   2 2.58  56 2.60  33 2.60  35 2.62  58 2.63  27 2.65
                            34 2.91
  27  0.001  0.500  0.752-  20 2.56 114 2.56  18 2.56 113 2.59 108 2.61 106 2.62  28 2.64  26 2.65
                             3 3.03
  28  0.127  0.630  0.875-  29 2.55   1 2.57  35 2.58  62 2.60  21 2.61  52 2.63  58 2.63  27 2.64
                           124 3.01
  29  0.005  0.754  0.995-  36 2.53 122 2.53  28 2.55  30 2.55  22 2.60 116 2.63 114 2.65   8 2.68
                             1 2.96
  30  0.128  0.873  0.120-   1 2.55  29 2.55  39 2.57  60 2.58   9 2.60  37 2.62  31 2.64  11 2.67

  31  0.004  0.752  0.252-  32 2.50 118 2.59  24 2.60 116 2.61  22 2.62  30 2.64   8 2.65 111 2.66

[...]

  40  0.245  0.997  0.498-  61 2.55  32 2.60  67 2.61  13 2.61  34 2.61  12 2.61 123 2.62  41 2.71
                             2 3.02   4 3.04
  41  0.378  0.117  0.634-  42 2.56  74 2.61  66 2.65  76 2.66  50 2.67  48 2.68  40 2.71  68 2.77
                            43 2.91 123 3.11
  42  0.236  0.004  0.743-  13 2.31  15 2.55  41 2.56  36 2.59  34 2.59 127 2.65  61 2.78  43 2.79
                            14 2.88
  43  0.374  0.135  0.874-  76 2.54  50 2.54  70 2.56  44 2.59  37 2.64  63 2.78  42 2.79 127 2.83
                            51 2.90  41 2.91  69 2.92
  44  0.249  0.253  0.001-  43 2.59  38 2.59  51 2.59  45 2.62  15 2.62  20 2.63  16 2.63  10 2.64
                             5 3.02
  45  0.376  0.376  0.126-  70 2.58  80 2.58  54 2.58  72 2.60  46 2.60  78 2.61  44 2.62  52 2.62

[...]

  47  0.374  0.375  0.378-  72 2.55  82 2.58  56 2.59  80 2.59  48 2.62  54 2.66  74 2.67  46 2.67
                             6 2.97 123 3.05
  48  0.254  0.247  0.505-  49 2.56 123 2.59  47 2.62  13 2.62  41 2.68  18 2.69   6 2.73  12 2.77
                           126 3.17
  49  0.374  0.372  0.626-  76 2.56  48 2.56  74 2.57  56 2.57  82 2.59  50 2.60  84 2.62  58 2.63

[...]

  59  0.372  0.875  0.120-  63 2.52   1 2.55  39 2.59  60 2.61  37 2.62  64 2.65  86 2.66 125 2.68
                           127 3.39
  60  0.249  0.750  0.246-  22 2.55  32 2.57  67 2.58  30 2.58  53 2.59  59 2.61  24 2.62  55 2.66
                             1 3.00 125 3.02   2 3.03
  61  0.370  0.870  0.612-   2 2.51  66 2.54  40 2.55  89 2.56  62 2.62  42 2.78  91 2.83  67 2.84
                           127 2.85
  62  0.248  0.749  0.744-  34 2.52  26 2.57  28 2.60  57 2.61  61 2.62  36 2.62 124 2.65 127 2.91
                             2 2.98
  63  0.500  0.001  0.014-  59 2.52  38 2.53  87 2.55   7 2.58  69 2.59 127 2.64  43 2.78  92 2.79
                            64 2.87
  64  0.496  0.999  0.251- 123 2.60  87 2.64  65 2.65  59 2.65  38 2.65  88 2.66  67 2.66   7 2.68
                            63 2.87 125 3.02
  65  0.621  0.122  0.382- 105 2.55  66 2.58  74 2.60  97 2.60  64 2.65  95 2.65  72 2.67 103 2.67
                            96 2.86 123 3.00
  66  0.496  0.992  0.496-  88 2.53  61 2.54  67 2.58  65 2.58 123 2.60  68 2.63  90 2.64  41 2.65

[...]

 100  0.870  0.123  0.877-  93 2.54  99 2.57 101 2.58  19 2.58 107 2.58   9 2.63  14 2.64   5 2.66
                            98 2.89
 101  0.752  0.253  0.999-  77 2.57 108 2.58 100 2.58  71 2.62   7 2.63 102 2.64  94 2.64  69 2.74
                             5 2.98
 102  0.872  0.381  0.129- 109 2.57 110 2.58  17 2.60  23 2.60 101 2.64 103 2.64   5 2.66  21 2.67
                             8 2.97
 103  0.750  0.253  0.258-  96 2.48 104 2.51  73 2.58   7 2.63  71 2.63 102 2.64  65 2.67  94 2.69

[...]

 114  0.878  0.623  0.874-  27 2.56  21 2.59 121 2.59  35 2.61   3 2.63  29 2.65 115 2.65 109 2.67
                             8 3.02
 115  0.751  0.752  0.998-  92 2.50 122 2.56  85 2.60  87 2.62   8 2.63 116 2.63 114 2.65  79 2.66

 116  0.879  0.874  0.126-  11 2.55  93 2.60  31 2.61   9 2.61  29 2.63 115 2.63  95 2.66 117 2.68
                             8 2.98
 117  0.749  0.751  0.256- 118 2.48  88 2.59 111 2.61  87 2.63  81 2.64  79 2.65 116 2.68   8 2.68
                           125 3.02
 118  0.870  0.867  0.375- 117 2.48  95 2.56  31 2.59 119 2.59  33 2.60   4 2.62  11 2.67  97 2.70

[...]

 120  0.870  0.867  0.628- 121 2.50 119 2.57  35 2.59  99 2.59  33 2.61  97 2.62   4 2.63  14 2.66

 121  0.754  0.746  0.750- 120 2.50 113 2.56  85 2.59 114 2.59  92 2.60 122 2.63  83 2.64  90 2.66
                             3 3.02
 122  0.878  0.872  0.877-  29 2.53 115 2.56  99 2.58  14 2.59  35 2.61   9 2.61  93 2.61 121 2.63
                            92 2.92
 123  0.373  0.123  0.377-  48 2.59  66 2.60  64 2.60  40 2.62  72 2.62  46 2.64  74 2.64  39 2.66
                            12 2.98  65 3.00  47 3.05  38 3.06  67 3.07  41 3.11
 124  0.376  0.629  0.875-  91 2.59   1 2.60  52 2.62  86 2.63  58 2.63  62 2.65  78 2.65  84 2.66
                            53 2.99  28 3.01  51 3.07  57 3.08  85 3.11 127 3.37
 125  0.499  0.748  0.250-  53 2.60  88 2.62  67 2.63  79 2.63  55 2.65  87 2.65  81 2.65  59 2.68
                           117 3.02  64 3.02  60 3.02  86 3.02  89 3.03  80 3.04
 126  0.992  0.243  0.506-  13 2.72 104 2.75  96 2.76 106 2.77  98 2.78  18 2.79  12 2.81   6 2.84
                             4 3.01  19 3.06 105 3.06  25 3.15  17 3.16  48 3.17
 127  0.405  0.904  0.843-  63 2.64  42 2.65  91 2.68  43 2.83  92 2.85  61 2.85  62 2.91  86 2.93
                            37 2.93   1 3.22 124 3.37  36 3.38  59 3.39

  LATTYP: Found a triclinic cell.
 ALAT       =    12.0721837097
 B/A-ratio  =     1.4146041240
 C/A-ratio  =     1.0004546509
 COS(alpha) =     0.0000515453
 COS(beta)  =     0.0001543277
 COS(gamma) =     0.7072501070

  Lattice vectors:

 A1 = (  -0.0028890920, -12.0721833280,  -0.0009320140)
 A2 = ( -12.0759596670, -12.0750756480,  -0.0004406820)
 A3 = (   0.0004918930,  -0.0009316000, -12.0776722930)

Analysis of symmetry for initial positions (statically):
[...]
    -0.000491893  0.000931600 12.077672293     0.000003371 -0.000006393  0.082797412

  length of vectors
    12.073070931 12.072183710 12.077672339     0.082828977  0.082835065  0.082797412

 FORCES acting on ions
    electron-ion (+dipol)            ewald-force                    non-local-force                 convergence-correction
   -.699E+02 -.123E+03 0.823E+02   0.690E+02 0.122E+03 -.816E+02   0.862E+00 0.486E+00 -.692E+00   0.212E-01 -.304E-01 -.579E-03
   0.291E+02 -.251E+02 -.267E+02   -.293E+02 0.249E+02 0.268E+02   0.129E+00 0.226E+00 -.526E-01   0.221E-01 -.261E-01 0.542E-02
   -.399E+01 0.227E+01 -.136E+02   0.374E+01 -.186E+01 0.137E+02   0.268E+00 -.395E+00 -.198E+00   -.255E-01 -.121E-01 0.183E-01
   0.118E+02 -.126E+03 -.112E+02   -.115E+02 0.126E+03 0.111E+02   -.337E+00 0.138E+00 0.241E-01   -.745E-02 0.913E-02 0.459E-03
   0.874E+01 0.842E+01 -.211E+02   -.878E+01 -.839E+01 0.211E+02   0.431E-01 -.442E-01 -.242E-01   -.531E-02 0.226E-01 -.166E-02
   0.838E+02 0.891E+02 -.546E+02   -.833E+02 -.888E+02 0.543E+02   -.456E+00 -.254E+00 0.286E+00   0.561E-02 0.855E-02 -.561E-02
   -.255E+02 0.112E+02 0.254E+02   0.255E+02 -.113E+02 -.252E+02   -.737E-01 0.719E-01 -.168E+00   -.101E-01 0.193E-01 -.130E-01
   0.113E+02 0.126E+02 -.110E+02   -.116E+02 -.127E+02 0.110E+02   0.221E+00 0.124E+00 -.560E-01   -.170E-01 -.198E-01 -.119E-01
   0.192E+02 -.675E+02 0.562E+01   -.194E+02 0.675E+02 -.565E+01   0.169E+00 -.765E-01 0.308E-01   -.771E-02 0.104E-01 0.282E-02
   0.697E+02 -.626E+02 0.147E+02   -.696E+02 0.624E+02 -.145E+02   -.134E+00 0.227E+00 -.253E+00   0.538E-02 0.281E-01 -.156E-01
   0.286E+02 -.596E+02 -.575E+02   -.286E+02 0.593E+02 0.577E+02   -.182E-01 0.313E+00 -.127E+00   -.945E-02 0.641E-02 -.193E-01
   0.134E+03 -.987E+02 -.122E+03   -.133E+03 0.989E+02 0.122E+03   -.739E+00 -.228E+00 0.353E+00   0.112E-01 0.294E-01 -.994E-02
   0.125E+03 -.551E+02 0.107E+03   -.126E+03 0.559E+02 -.107E+03   0.592E+00 -.845E+00 0.265E+00   0.153E-01 0.300E-01 0.131E-01
   0.986E+00 -.601E+02 0.679E+02   -.797E+00 0.599E+02 -.680E+02   -.185E+00 0.273E+00 0.918E-01   -.447E-02 0.909E-02 0.159E-01
   0.277E+02 -.248E+02 0.460E+01   -.278E+02 0.248E+02 -.491E+01   0.102E+00 -.437E-01 0.296E+00   0.112E-01 0.321E-01 0.119E-01
   0.759E+02 0.699E+02 -.287E+02   -.757E+02 -.699E+02 0.291E+02   -.182E+00 -.289E-01 -.308E+00   0.661E-02 0.775E-02 -.167E-01
   -.111E+02 -.282E+02 -.883E+02   0.111E+02 0.283E+02 0.885E+02   0.703E-01 -.905E-01 -.139E+00   -.634E-02 0.254E-01 -.155E-01
   0.909E+02 0.116E+03 0.111E+03   -.903E+02 -.116E+03 -.111E+03   -.580E+00 -.162E+00 -.486E-01   0.126E-01 0.925E-02 0.116E-01
   -.511E+01 0.459E+02 0.855E+02   0.541E+01 -.457E+02 -.858E+02   -.297E+00 -.162E+00 0.281E+00   -.345E-02 0.260E-01 0.166E-01
   0.442E+02 0.839E+02 -.241E+02   -.437E+02 -.840E+02 0.238E+02   -.539E+00 0.102E+00 0.296E+00   0.123E-01 0.823E-02 0.122E-01
   0.483E+02 0.437E+02 -.602E+02   -.482E+02 -.441E+02 0.601E+02   -.503E-01 0.408E+00 0.110E+00   -.181E-02 -.956E-02 -.264E-02
   0.882E+02 0.520E+02 -.237E+02   -.883E+02 -.521E+02 0.234E+02   0.127E+00 0.117E+00 0.292E+00   0.106E-01 -.244E-01 -.135E-01
   0.186E+02 0.654E+02 -.220E+02   -.186E+02 -.651E+02 0.220E+02   -.466E-01 -.274E+00 0.313E-01   -.984E-03 -.922E-02 -.137E-01
   0.692E+02 0.107E+03 0.254E+02   -.691E+02 -.108E+03 -.252E+02   -.877E-01 0.386E+00 -.168E+00   0.791E-02 -.291E-01 -.110E-01
   -.329E+02 0.162E+03 0.606E+02   0.330E+02 -.162E+03 -.606E+02   -.871E-01 0.255E+00 0.468E-01   -.831E-03 -.137E-01 -.352E-03
   0.433E+02 0.489E+02 -.880E+01   -.432E+02 -.487E+02 0.883E+01   -.153E+00 -.113E+00 -.411E-01   0.122E-01 -.278E-01 0.152E-01
   -.238E+02 0.564E+02 0.241E+02   0.241E+02 -.561E+02 -.242E+02   -.322E+00 -.264E+00 0.680E-01   -.474E-03 -.821E-02 0.173E-01
   0.318E+02 0.229E+02 0.123E+02   -.315E+02 -.231E+02 -.123E+02   -.252E+00 0.209E+00 -.290E-01   0.139E-01 -.276E-01 0.913E-02
   0.739E+02 0.211E+02 -.444E+02   -.743E+02 -.212E+02 0.444E+02   0.427E+00 0.137E+00 0.367E-01   -.254E-02 -.264E-01 0.161E-02
   0.442E+02 -.586E+02 -.526E+01   -.440E+02 0.587E+02 0.521E+01   -.165E+00 -.623E-01 0.585E-01   0.995E-02 -.130E-01 -.108E-01
   0.690E+02 0.241E+02 0.290E+02   -.690E+02 -.243E+02 -.290E+02   -.160E-01 0.208E+00 0.165E-01   -.536E-02 -.238E-01 -.185E-01
   0.883E+02 -.110E+03 -.285E+02   -.878E+02 0.110E+03 0.290E+02   -.547E+00 -.186E+00 -.423E+00   0.116E-01 -.128E-01 -.143E-01
   0.344E+02 -.505E+02 0.795E+01   -.346E+02 0.506E+02 -.787E+01   0.198E+00 -.139E+00 -.726E-01   -.648E-02 -.270E-01 0.713E-03
   0.570E+02 -.128E+03 -.143E+02   -.570E+02 0.128E+03 0.142E+02   -.533E-01 0.519E-01 0.766E-01   0.160E-01 -.141E-01 0.163E-01
   0.495E+01 -.434E+02 0.801E+01   -.501E+01 0.434E+02 -.794E+01   0.610E-01 0.643E-01 -.877E-01   -.193E-02 -.272E-01 0.168E-01
   -.653E+02 -.799E+02 0.417E+02   0.649E+02 0.799E+02 -.417E+02   0.366E+00 -.540E-02 -.314E-01   0.132E-01 -.141E-01 0.946E-02
   -.768E+02 0.233E+02 0.100E+03   0.767E+02 -.233E+02 -.997E+02   0.101E+00 -.802E-02 -.454E+00   0.228E-01 0.952E-02 -.857E-03
   -.414E+02 0.117E+02 0.488E+02   0.415E+02 -.117E+02 -.485E+02   -.116E+00 -.383E-01 -.356E+00   0.224E-01 0.243E-01 -.147E-01
   0.247E+02 -.220E+02 0.113E+02   -.243E+02 0.216E+02 -.113E+02   -.352E+00 0.399E+00 0.899E-01   0.235E-01 0.675E-02 -.153E-01
   0.774E+02 -.828E+02 -.666E+02   -.777E+02 0.830E+02 0.669E+02   0.347E+00 -.216E+00 -.286E+00   0.252E-01 0.979E-02 0.286E-02
   -.811E+02 0.118E+03 -.127E+03   0.805E+02 -.117E+03 0.126E+03   0.570E+00 -.709E+00 0.427E+00   0.163E-01 0.249E-01 0.140E-01
   -.138E+03 0.324E+02 -.507E+02   0.138E+03 -.330E+02 0.510E+02   0.900E-01 0.565E+00 -.352E+00   0.214E-01 0.939E-02 0.136E-01
   -.899E+02 0.182E+03 0.814E+02   0.893E+02 -.182E+03 -.807E+02   0.622E+00 -.303E+00 -.761E+00   0.214E-01 0.319E-01 0.103E-01
   0.577E+02 0.272E+02 0.426E+01   -.580E+02 -.272E+02 -.412E+01   0.284E+00 -.543E-01 -.127E+00   0.212E-01 0.265E-01 -.705E-02
   0.168E+02 0.372E+02 -.352E+01   -.169E+02 -.373E+02 0.330E+01   0.891E-01 0.195E-01 0.245E+00   0.197E-01 0.917E-02 -.208E-01
   0.102E+03 -.510E+02 -.412E+02   -.102E+03 0.512E+02 0.408E+02   -.152E+00 -.227E+00 0.352E+00   0.195E-01 0.237E-01 -.134E-01
   0.779E+02 0.316E+02 0.170E+01   -.783E+02 -.315E+02 -.161E+01   0.363E+00 -.487E-01 -.859E-01   0.152E-01 0.755E-02 -.615E-02
   0.162E+03 -.706E+00 0.208E+01   -.162E+03 0.824E+00 -.150E+01   0.210E+00 -.143E+00 -.581E+00   0.164E-01 0.253E-01 0.289E-02
   0.382E+02 0.609E+02 0.236E+01   -.383E+02 -.602E+02 -.224E+01   0.880E-01 -.657E+00 -.132E+00   0.187E-01 0.115E-01 0.192E-01
   0.268E+02 0.590E+02 0.268E+02   -.266E+02 -.589E+02 -.270E+02   -.134E+00 -.149E+00 0.105E+00   0.226E-01 0.276E-01 0.175E-01
   0.213E+02 0.428E+02 -.659E+00   -.216E+02 -.425E+02 0.607E+00   0.313E+00 -.339E+00 0.443E-01   0.200E-01 0.927E-02 0.762E-02
   0.472E+02 0.642E+02 -.196E+02   -.476E+02 -.647E+02 0.198E+02   0.343E+00 0.502E+00 -.213E+00   0.206E-01 -.782E-02 -.684E-02
   -.220E+02 0.228E+02 0.153E+02   0.220E+02 -.227E+02 -.158E+02   -.578E-01 -.965E-01 0.550E+00   0.190E-01 -.228E-01 -.183E-01
   0.723E+02 0.810E+02 -.427E+02   -.723E+02 -.808E+02 0.426E+02   -.202E-01 -.159E+00 0.495E-01   0.143E-01 -.825E-02 -.166E-01
   0.345E+01 0.543E+02 0.116E+02   -.344E+01 -.541E+02 -.112E+02   -.305E-01 -.116E+00 -.349E+00   0.161E-01 -.240E-01 -.962E-02
   0.103E+03 0.111E+03 0.458E+02   -.103E+03 -.111E+03 -.457E+02   0.106E+00 0.141E+00 -.927E-01   0.157E-01 -.116E-01 0.575E-02
   -.231E+02 -.142E+02 -.472E+02   0.230E+02 0.143E+02 0.473E+02   0.423E-01 -.331E-01 -.605E-01   0.174E-01 -.272E-01 0.190E-01
   0.281E+02 0.402E+02 0.147E+02   -.281E+02 -.402E+02 -.149E+02   -.599E-01 -.287E-01 0.168E+00   0.224E-01 -.952E-02 0.180E-01
   -.318E+02 -.665E+02 0.104E+03   0.315E+02 0.661E+02 -.103E+03   0.293E+00 0.340E+00 -.447E+00   0.229E-01 -.111E-01 -.122E-01
   0.290E+02 -.575E+01 0.808E+01   -.290E+02 0.564E+01 -.788E+01   -.582E-01 0.137E+00 -.178E+00   0.175E-01 -.237E-01 -.206E-01
[...]
   -.647E+01 -.176E+02 -.778E+02   0.601E+01 0.177E+02 0.781E+02   0.471E+00 -.293E-01 -.310E+00   -.169E-01 -.255E-01 0.120E-01
   -.159E+02 0.541E+01 -.486E+02   0.157E+02 -.548E+01 0.487E+02   0.213E+00 0.919E-01 -.659E-01   -.224E-01 -.224E-01 0.415E-02
   0.282E+02 0.333E+01 -.606E+01   -.286E+02 -.374E+01 0.595E+01   0.436E+00 0.423E+00 0.120E+00   -.223E-01 -.994E-02 -.104E-01
   -.528E+02 0.232E+02 0.632E+02   0.523E+02 -.233E+02 -.634E+02   0.525E+00 0.107E+00 0.215E+00   -.195E-01 -.178E-01 -.193E-01
   -.388E+02 -.877E+02 -.363E+02   0.387E+02 0.879E+02 0.364E+02   0.115E+00 -.157E+00 -.142E+00   -.254E-01 -.125E-01 -.148E-01
   -.140E+02 -.482E+02 -.740E+01   0.139E+02 0.483E+02 0.746E+01   0.994E-01 -.826E-01 -.662E-01   -.187E-01 -.187E-01 -.206E-04
   -.238E+02 -.106E+03 0.373E+02   0.240E+02 0.106E+03 -.372E+02   -.250E+00 -.124E+00 -.151E+00   -.235E-01 -.135E-01 0.115E-01
   0.439E+02 -.795E+02 -.109E+02   -.443E+02 0.796E+02 0.110E+02   0.455E+00 -.152E+00 -.118E+00   -.206E-01 -.235E-01 0.159E-01
   0.149E+02 -.458E+02 0.390E+01   -.149E+02 0.460E+02 -.421E+01   0.107E+00 -.149E+00 0.299E+00   -.213E-01 -.115E-01 0.135E-01
   0.317E+02 -.251E+02 -.326E+02   -.317E+02 0.250E+02 0.323E+02   0.126E-01 -.138E-01 0.349E+00   0.275E-01 0.272E-01 -.115E-01
   -.330E+02 -.104E+03 0.211E+02   0.328E+02 0.103E+03 -.209E+02   0.201E+00 0.518E+00 -.238E+00   0.226E-01 -.356E-01 0.118E-01
   -.470E+02 -.321E+02 0.412E+02   0.470E+02 0.322E+02 -.412E+02   -.560E-01 -.433E-01 0.277E-03   0.102E-01 -.229E-01 -.277E-01
   -.288E+02 0.271E+02 0.342E+02   0.287E+02 -.271E+02 -.341E+02   0.547E-01 -.711E-01 -.500E-01   -.493E-02 0.317E-01 0.712E-03
   -.917E+02 -.119E+03 0.745E+02   0.911E+02 0.118E+03 -.738E+02   0.527E+00 0.668E+00 -.701E+00   0.176E-01 -.698E-02 0.125E-01
   0.732E+00 -.816E-01 -.281E+00   -.223E-11 0.455E-12 0.995E-12   -.744E+00 0.126E+00 0.284E+00   0.118E-01 -.428E-01 -.326E-02

 POSITION                                       TOTAL-FORCE (eV/Angst)
      3.02810      9.08429     12.05473        -0.000072      0.001708     -0.001052
      3.00244      9.01832      6.00325        -0.000519      0.000139     -0.000244
      9.05821      5.99391      9.08073         0.000027      0.000247     -0.000167
     11.99466     12.00031      6.05486         0.000925      0.000144      0.000327
     12.05361      3.04992      0.02288        -0.000453     -0.000550      0.000406
      1.54603      4.58025      4.47845         0.000614      0.000633     -0.000310
      7.56150      1.57169      1.55068        -0.000181     -0.000955      0.000825
     10.58974      7.57343      1.50101        -0.000020     -0.000650      0.000690
      0.02300     12.06790     12.07315        -0.000999      0.000136     -0.000859
      1.51949      1.47304      1.51854         0.000029     -0.000464      0.000336
     12.05556     12.03641      3.01570         0.000073      0.000349      0.000803
      1.52590      1.42838      4.39153         0.000837     -0.000103      0.000715
      1.59286      1.46723      7.65251         0.001042     -0.000748     -0.000533
     12.05071     12.04869      9.07335        -0.000320      0.000411     -0.001090
      1.51350      1.50540     10.58970        -0.000704     -0.000960     -0.000576
      1.53788      4.60382      1.55262         0.000052      0.000477      0.000128
     12.01590      2.98267      2.94966         0.001019      0.000468     -0.000443
      1.54417      4.58201      7.63970        -0.000111      0.000262     -0.000095
     12.02138      3.01199      9.16250         0.000535     -0.000280     -0.000239
      1.51557      4.58384     10.56021        -0.001009      0.000078     -0.000283
      0.05308      6.04226     12.05664        -0.000368     -0.000046     -0.000315
      1.53345      7.59776      1.48517        -0.000359      0.000736     -0.000640
      0.01620      6.08345      3.01970         0.000176      0.000036      0.000362
      1.53504      7.56944      4.55684        -0.000167      0.000640     -0.000126
     12.01971      6.08694      6.09983         0.000200      0.000574     -0.000339
      1.51724      7.54688      7.51286        -0.000979      0.000244     -0.000664
      0.01317      6.03685      9.08863        -0.000507     -0.000361     -0.000728
      1.53250      7.60295     10.57420        -0.001545      0.000186     -0.000847
      0.06723      9.10377     12.02285        -0.000761      0.000288     -0.000512
      1.54900     10.54546      1.44575        -0.000462     -0.000182     -0.001203
      0.05268      9.08326      3.04979         0.000226      0.000159     -0.000606
      1.52019     10.48662      4.50512        -0.000210     -0.000247      0.000161
     12.03610      9.02876      6.04539         0.000175      0.000181     -0.000068
      1.51949     10.45264      7.51277        -0.000496      0.001010     -0.000232
      0.01880      9.04131      9.05929        -0.001221      0.000555     -0.000809
      1.54669     10.54896     10.56674        -0.000591      0.000562     -0.000811
      3.00472      0.07820     12.05929        -0.000821     -0.000121     -0.000284
      4.50563      1.54377      1.48899        -0.000307     -0.000924      0.000710
      2.99532     12.03479      2.96752        -0.000154      0.000249      0.000382
      2.96195     12.03608      6.01522         0.000566      0.000113      0.000218
      4.56751      1.40839      7.65319         0.000846     -0.000614      0.000270
      2.85289      0.04755      8.97613         0.000164      0.000678     -0.000572
      4.51960      1.62896     10.55531        -0.000551     -0.000906      0.000056
      3.00323      3.05351      0.01582        -0.000802     -0.000717      0.000263
      4.54113      4.54453      1.52733        -0.000145     -0.000316      0.000491
      3.03066      2.99059      2.96087         0.000783     -0.000222      0.000014
      4.51924      4.53287      4.56016         0.000660     -0.000331      0.000331
      3.06345      2.98252      6.09352         0.000693     -0.000052      0.000655
      4.52100      4.49635      7.55705         0.000038     -0.000009      0.000158
      3.00468      3.04005      9.08379         0.000088     -0.000516     -0.000194
      4.52436      4.52549     10.59753        -0.000922     -0.000315      0.000187
      3.04064      6.05948      0.00096        -0.001304      0.000026      0.000117
      4.51537      7.57818      1.48360        -0.000483      0.000416      0.000195
      3.07205      6.10522      2.96953         0.000452      0.000180      0.000058
      4.48985      7.52455      4.55332         0.000095      0.000065      0.000199
      3.06827      6.02957      6.08936         0.000466      0.000179     -0.000152
      4.49439      7.52554      7.48905        -0.000458      0.000470     -0.000257
      3.02489      6.04831      9.06602        -0.001258     -0.000027     -0.000286
      4.49061     10.56138      1.44507        -0.000998     -0.000047     -0.000122
      3.00380      9.05883      2.97280        -0.000387     -0.000130     -0.000352
[...]
     10.56410      7.50359      7.59506         0.000276      0.000292     -0.000555
     10.60401      7.51831     10.55960        -0.000888     -0.000114     -0.000729
      9.06839      9.08243     12.05572        -0.000872     -0.000303      0.000262
     10.61217     10.55791      1.51950        -0.000010      0.000388      0.000201
      9.04467      9.06770      3.09465         0.000148      0.000218      0.000483
     10.50607     10.47488      4.52395         0.001237      0.000116      0.000818
      9.02844      9.00647      6.07131         0.000524      0.000065     -0.000351
     10.50297     10.46798      7.58789        -0.000001      0.000442     -0.000340
      9.10588      9.01154      9.05805        -0.000766      0.000452     -0.000007
     10.60141     10.52821     10.59607        -0.001125      0.000076     -0.000387
      4.50067      1.48568      4.54863        -0.000125     -0.000546     -0.000625
      4.54254      7.59095     10.56709        -0.000985      0.000798     -0.000089
      6.02797      9.03544      3.01660         0.000024     -0.000442      0.000421
     11.97095      2.93855      6.10787         0.000512      0.000460      0.000196
      4.88861     10.91718     10.17641        -0.001935     -0.000308      0.000548
    total drift:                                0.000124      0.002055     -0.000191

  FREE ENERGIE OF THE ION-ELECTRON SYSTEM (eV)
  free  energy   TOTEN  =     -1140.34251744 eV

  energy  without entropy=    -1140.26527540  energy(sigma->0) =    -1140.31677009